Name: Hexachlorocyclopentadiene
InChIKey: VUNCWTMEJYMOOR-UHFFFAOYSA-N
DB#: 155
Retention_index: 1326.0
Formula: C5Cl6
ExactMass: 271.81018
Comments: "Sample=8270 MegaMix Standard" "SMILES=C=1(C(=C(C(C1Cl)(Cl)Cl)Cl)Cl)Cl" "CID=6478" "InChI=InChI=1S/C5Cl6/c6-1-2(7)4(9)5(10,11)3(1)8"
Num peaks: 153
41.038605 2.3677785
43.054226 2.1903543
46.96832 9.876589
48.965366 3.7029428
50.01514 3.4586637
55.054256 1.5667921
57.06992 5.64144
58.968296 1.2392755
59.999477 14.464481
61.007317 20.093334
62.015106 1.2141112
64.96835 36.22992
65.46998 2.1386483
65.96686 24.45791
66.46853 1.1924348
66.96539 3.4687903
69.0699 1.1033169
70.96839 25.129038
71.0856 3.5649352
71.97621 3.1057444
72.96542 8.437793
72.98404 1.6582642
73.973274 1.1618378
76.95674 10.67848
77.002266 2.9558923
77.955246 11.032078
78.95379 3.7347677
81.93723 6.18286
82.45284 8.868355
82.94515 8.4883175
82.95678 1.3161122
82.968414 6.27955
83.451385 8.826663
83.93431 4.379997
83.95532 1.2105145
83.97624 2.0426853
84.449875 3.0146244
84.94217 5.4838367
84.96544 2.0084426
85.10131 2.3070714
90.95419 5.7592506
91.95277 5.8655505
92.95127 1.7966957
93.93726 11.328086
94.96846 105.83875
95.93432 7.5578413
95.971855 5.8263702
95.97624 18.854143
96.9655 34.46157
96.979706 1.0558007
96.98402 1.6669513
97.93137 1.0693653
97.96894 1.8076745
97.973305 6.060612
99.9373 10.171521
100.441284 7.3906083
100.9358 14.485203
101.439804 11.090504
101.93433 7.1181593
102.43836 4.923399
102.93279 1.2013617
103.43677 1.0524515
105.93732 39.410458
106.9408 1.2100397
106.94512 19.97561
107.93436 26.205742
108.93782 1.068732
108.94218 12.94033
109.93143 4.3579535
110.93922 2.257675
116.90618 93.84959
117.42176 59.252357
117.923355 3.0943868
117.93733 30.060286
118.42027 95.71327
118.903206 92.09732
118.92168 4.5094395
118.94057 1.2203698
119.4188 60.354218
119.920395 2.8815203
119.93439 19.852055
120.41729 19.726238
120.90026 29.890345
121.415794 2.7627668
121.931335 3.0584545
122.89729 2.9365034
129.9373 178.80966
130.9404 5.823892
130.9454 17.514938
131.93439 112.59832
132.93736 3.784307
132.9428 10.828491
132.9608 3.447671
133.93144 17.428623
134.9395 2.3282228
134.95778 2.1362252
140.9062 132.32697
141.90948 3.8712559
142.90324 129.2581
143.90651 3.989802
144.90025 39.953068
145.9037 1.1206077
146.89735 4.0259395
152.90619 7.1063685
154.9032 6.8889713
156.90033 2.2018511
162.93498 1.4541341
164.90617 97.55845
165.9094 5.0454803
166.90323 93.53183
166.92174 34.810173
167.90659 4.6693807
167.92513 1.3943133
168.9002 29.472113
168.91884 33.26787
169.90369 1.3897774
169.92209 1.3785713
170.89743 3.0141566
170.91585 10.360822
180.90114 1.9550058
182.89813 2.3235571
199.87494 1.2736918
200.88283 131.28012
201.87254 1.4639456
201.88824 7.778965
202.87988 166.20639
203.88521 10.083581
204.87694 78.855965
205.88196 4.884537
206.87404 16.305424
208.87108 1.1935099
234.8192 1.7377875
234.84407 629.25464
235.84929 46.891567
236.84093 999.0
237.84628 76.312294
238.83795 637.7828
239.84348 48.996536
240.83499 204.45961
241.84048 15.429444
242.83218 31.130356
243.83755 2.3624885
244.82906 1.7121915
269.81296 74.39401
270.81635 3.9741318
271.81003 140.5333
272.81357 7.495252
273.8071 113.55771
274.81046 5.73117
275.80396 47.780342
276.8075 2.3932214
277.80115 11.113537
279.798 1.4192476

Name: 3-(2-Methoxyethyl)nonan-1-ol 
InChIKey: ASCRDHSJOXDMSO-UHFFFAOYSA-N
DB#: 84
Retention_index: 1506.0
Formula: H26C12O2
ExactMass: 202.1933
Comments: "Sample=Pure sample" "SMILES=CCCCCCC(CCO)CCOC" "CID=542174" "InChI=InChI=1S/C12H26O2/c1-3-4-5-6-7-12(8-10-13)9-11-14-2/h12-13H,3-11H2,1-2H3"
Num peaks: 118
40.026234 2.0867038
40.0307 2.7509737
41.03853 179.0155
42.041897 6.430169
42.04635 21.004793
43.017788 33.864784
43.054176 40.23739
44.025585 2.9041276
44.05752 1.4059665
45.033432 159.85657
46.036777 3.6712897
50.015034 1.4640465
51.02284 4.73234
52.0307 1.1453346
53.038513 36.264294
54.041912 1.5258595
54.046337 36.65871
55.017765 2.4924822
55.054173 366.90775
56.057533 16.657383
56.06199 89.08754
57.03343 35.432045
57.06537 3.9320621
57.069813 60.23317
58.04126 67.46287
58.073143 2.7394736
59.044617 2.0583982
59.049084 61.003284
60.052406 1.8364096
63.02284 1.0829246
65.03852 28.36804
66.046364 43.60732
67.05048 1.4254037
67.05416 999.0
68.0576 54.646584
68.062 191.04982
69.03348 7.156096
69.06542 10.21066
69.06982 275.96893
70.04129 2.8628595
70.07348 14.804111
70.07766 98.18372
71.04909 183.92674
71.08107 5.3142867
71.08546 17.307278
72.05254 7.615289
72.05691 12.200022
73.06477 2.3088102
77.03852 20.46149
78.04184 1.1091642
78.04636 2.5744255
79.054184 103.45647
80.05765 6.0452967
80.06202 24.16249
81.06983 658.5499
82.0733 39.681103
82.07764 304.1761
83.0491 28.36357
83.08108 18.75736
83.08547 160.67293
84.05236 1.3381066
84.0569 4.3008394
84.08883 10.242581
84.0933 29.202766
85.06472 50.728275
85.09659 1.8575786
85.101166 4.76146
86.06806 2.419364
86.07261 3.9023702
91.05412 15.633217
92.05744 1.0274621
93.06982 28.579119
94.07339 2.0677576
94.0776 15.272657
95.049 1.7828254
95.08542 551.25854
96.08885 41.871895
96.09325 91.60745
97.0647 10.151028
97.09674 6.581131
97.10102 66.97123
98.07255 1.249873
98.10442 4.6698833
98.108826 8.989123
99.080345 99.71689
100.0837 7.7567353
100.0878 1.3357759
105.06975 2.731516
107.0854 6.657366
108.093094 3.1490088
109.10104 198.48201
110.104355 16.061892
110.10882 54.275723
111.11242 4.98371
111.11669 68.60115
112.119965 5.713752
112.12448 9.790278
113.09591 6.6675587
121.100975 3.0991125
122.10885 2.4673078
123.11669 265.35666
124.11981 21.116508
124.12451 44.189075
125.12761 3.470549
125.132805 4.817547
126.14019 3.0983388
127.111595 3.0606527
137.13235 8.327715
140.15567 2.3259282
141.12726 4.824589
151.14793 2.2277544
152.15575 3.0550964
155.14285 24.303787
156.14598 2.2861834
169.15855 40.056107
170.16183 4.7351513
183.17392 1.17243
185.18958 1.8031443

Name: 2,4,6-Trichlorophenol
InChIKey: LINPIYWFGCPVIE-UHFFFAOYSA-N
DB#: 117
Retention_index: 1354.0
Formula: H3C6OCl3
ExactMass: 195.92494
Comments: "Sample=Pure sample" "SMILES=c1c(cc(c(c1Cl)O)Cl)Cl" "CID=6914" "InChI=InChI=1S/C6H3Cl3O/c7-3-1-4(8)6(10)5(9)2-3/h1-2,10H"
Num peaks: 132
46.96828 6.5756626
47.987743 20.494549
48.965355 2.2517636
49.00726 4.362357
50.015083 8.656619
51.02294 1.3087791
53.00218 21.513273
59.976097 4.425021
59.99944 6.775454
60.98395 1.2953526
61.007282 69.46514
61.009224 1.0666012
61.973167 1.3745657
61.985226 1.8051727
62.01087 4.0124607
62.015087 85.60771
62.963245 1.4986404
63.018505 4.536319
63.02293 28.453936
64.02631 1.4099373
64.96828 2.2072663
65.9668 1.100179
65.97613 7.994469
66.01003 2.8532586
66.974655 5.4401894
70.96831 12.521714
71.976135 29.505194
72.9654 4.3315754
72.98396 40.017445
73.00732 7.6471925
73.9732 10.350389
73.987335 1.2838761
74.015144 13.628299
74.98101 13.635907
75.97102 1.2301667
77.00222 4.9820714
79.97361 10.092093
80.97212 6.8811407
81.937195 1.1502128
81.9707 1.03778
82.94502 20.510643
83.97614 9.842204
84.942055 13.100475
84.984024 3.2830765
85.973236 3.174514
85.991844 2.4069505
86.939125 2.1601408
86.96325 8.537061
88.96028 2.7655673
89.00226 1.5259652
90.01005 9.837862
91.017876 2.2658687
94.96833 65.91609
95.971886 3.7048664
95.976135 35.830746
96.96557 22.239792
96.97737 1.6439748
96.983986 607.9164
97.96197 3.8668642
97.97317 11.974824
97.987305 32.12935
97.991104 1.1929467
98.960396 3.2365928
98.98099 196.36172
99.959015 1.2757623
99.97103 1.8404939
99.984406 11.865715
105.937164 7.202096
106.94497 69.50261
107.934204 4.557121
107.94834 2.1287403
107.97613 10.889434
108.94206 45.48511
108.9839 5.24925
109.94546 1.2812645
109.973206 3.6036136
110.93908 6.8843074
110.98102 1.5741712
112.97885 2.4052558
113.98675 106.72208
114.98997 5.0212784
114.994545 10.8870735
115.98374 33.086727
116.90603 1.2373414
116.987076 1.6932448
116.99166 3.3259776
117.93715 1.5618858
118.903114 1.3696029
123.97106 3.4773917
124.978935 9.359337
125.96819 1.1446261
125.98682 3.6721168
126.976036 3.0811498
127.98377 1.0102453
129.93727 2.4318767
130.94508 32.44034
131.95288 424.16653
132.94225 21.28746
132.95633 13.061197
132.9607 62.984665
133.94992 268.51865
134.93954 3.705406
134.958 39.829662
135.9469 42.129513
135.96101 2.29184
136.95537 5.8929877
140.90608 1.7157578
142.90315 1.6316633
142.94516 1.298789
142.98955 1.9015063
158.01315 1.6088557
159.94774 287.67584
160.95023 15.47866
161.94484 183.3323
162.94746 9.787794
163.94188 28.40142
164.9451 1.5609533
166.92169 32.197315
167.92491 1.0867994
168.91878 30.179085
170.91586 9.60994
194.9166 10.166415
195.92447 999.0
196.91403 9.070178
196.92778 63.64106
197.92146 943.2009
198.91217 2.8677816
198.9248 59.42059
199.91844 295.49326
200.92194 18.224228
201.91553 29.94126
202.9189 1.6207318

Name: 1-Methyl-1H-pyrazol-3-amine
InChIKey: MOGQNVSKBCVIPW-UHFFFAOYSA-N
DB#: 3
Retention_index: 1003.0
Formula: H7C4N3
ExactMass: 97.063995
Comments: "Sample=Pure sample" "SMILES=CN1C=CC(=N)N1" "CID=137254" "InChI=InChI=1S/C4H7N3/c1-7-3-2-4(5)6-7/h2-3H,1H3,(H2,5,6)"
Num peaks: 41
40.018177 4.8578944
41.026012 6.774571
41.038586 7.934584
42.021263 4.203244
42.033844 60.1586
43.02908 12.971204
43.03719 1.290675
43.041656 2.6890366
44.03691 4.2659
45.044735 3.2227345
51.01036 8.198212
52.018192 118.31319
53.013466 1.8204173
53.021576 3.9658332
53.026005 27.30841
54.033833 69.79529
55.029087 11.66663
55.037186 2.3710754
55.04165 1.7856244
56.036903 1.2326016
57.04476 1.9143617
66.02124 2.0909567
67.02912 16.074217
67.04167 1.5780414
68.03693 13.344752
68.04951 14.270566
69.044754 92.54388
70.04808 3.1619098
70.052574 1.5588043
77.0135 1.4901825
79.02914 43.295826
80.03255 1.9103894
80.03696 3.5430212
81.04472 3.8579988
82.04001 9.140829
82.05241 1.1238068
94.04012 3.4415214
96.055695 547.0394
97.06336 999.0
98.06066 11.077763
98.066765 44.60107

Name: 2,3,4,6-Tetrachlorophenol
InChIKey: VGVRPFIJEJYOFN-UHFFFAOYSA-N
DB#: 167
Retention_index: 1539.0
Formula: H2C6OCl4
ExactMass: 231.88304
Comments: "Sample=8270 MegaMix Standard" "SMILES=c1c(c(c(c(c1Cl)O)Cl)Cl)Cl" "CID=6028" "InChI=InChI=1S/C6H2Cl4O/c7-2-1-3(8)6(11)5(10)4(2)9/h1,11H"
Num peaks: 160
41.03857 1.1003398
43.05423 1.3638655
46.968323 5.8454604
47.987785 3.450822
48.96537 2.232124
48.986313 1.1058029
49.007294 3.1225393
50.015125 2.9786444
53.002224 8.98133
57.06991 3.1129568
59.97618 2.7029417
59.99947 7.8391376
61.007317 60.737938
61.985252 1.9724954
62.01068 3.1049223
62.01516 15.655837
63.022945 1.1548365
64.96836 93.22725
65.4701 4.826634
65.96686 63.088856
66.46858 3.2064774
66.96541 10.0474
70.968376 18.538084
71.08563 1.8967367
71.97623 13.586539
72.96543 6.156435
72.98407 5.957035
73.00735 5.3561
73.97325 5.0574245
74.98108 1.7360159
77.0023 5.6878576
81.93728 1.779121
82.94513 12.331259
82.956726 9.69943
82.96843 2.0718577
83.93431 1.0127327
83.95529 8.730534
83.97623 11.206845
84.94215 7.813149
84.95381 3.0630436
85.101364 1.1757925
85.97332 3.611923
86.939186 1.0697962
86.96337 16.297714
87.97118 2.603021
88.960434 5.1144524
88.96975 1.5352956
89.00237 1.7008519
90.01021 3.8815548
93.93726 2.0530093
94.96844 39.865986
95.93438 1.1422279
95.97623 104.38343
96.954254 6.5553136
96.965515 13.220297
96.97976 5.8390975
96.98399 33.97913
97.952705 6.017242
97.97328 33.722496
97.98736 1.7093937
98.95124 2.0820255
98.97695 1.695945
98.9811 10.985029
99.97112 2.5344965
100.0058 1.1133449
105.9373 22.905235
106.94514 66.25372
106.968414 2.3915985
107.934326 15.031516
107.94855 2.214365
107.976295 17.32627
108.94218 43.180126
109.93144 2.584965
109.94552 1.4044881
109.97332 5.5942063
110.939285 7.223227
110.96329 2.0536985
114.9426 3.0686119
115.94107 4.0069366
116.90605 5.478379
116.93956 1.7171512
117.93745 6.956439
118.90326 5.113392
118.9451 2.8908243
119.93442 4.4833236
120.900246 1.5835655
120.94236 1.7622786
122.96348 1.7071728
123.971245 14.992784
124.97936 1.5393872
125.96831 4.838858
129.93732 20.19722
129.98195 4.1148944
130.94516 562.53986
131.9345 12.775407
131.94835 28.06714
131.97905 1.0969
132.94218 351.41394
133.93161 2.4038923
133.94547 17.640533
134.93929 56.024868
135.94261 2.7567725
140.90619 18.373428
141.93733 3.2854047
142.90326 18.443176
142.94513 3.3466303
143.93428 2.010767
144.90028 5.451362
144.94218 2.3552208
146.94002 1.8386464
147.94792 16.64704
148.95584 3.137824
149.94498 10.520639
150.95285 1.9134096
151.942 1.4422628
158.94019 2.9792495
159.94781 4.1704445
160.93715 1.8918974
161.9452 2.7540858
164.90622 23.729275
165.91399 293.19855
166.9033 22.05228
166.92271 42.10013
167.91106 278.7208
168.90073 6.5299373
168.91974 39.51425
169.90816 85.77031
169.92282 1.7613837
170.91687 12.161495
171.90508 9.298025
172.91345 1.0036135
174.93512 2.440468
176.93161 1.4584123
193.90886 238.53555
194.91203 14.274083
195.90598 227.40851
196.9093 14.148982
197.903 71.387054
198.90622 4.141516
199.8999 7.1373515
200.88301 15.835999
202.88 20.572771
204.87686 9.775174
206.87384 2.178302
211.91962 2.3125095
213.91615 2.406525
228.87767 8.775656
229.88557 787.4815
230.87494 11.214165
230.88881 50.06696
231.85818 3.964899
231.88272 999.0
232.8722 5.466478
232.88599 63.20688
233.87965 484.12427
234.8704 1.4376105
234.88307 30.32987
235.87663 99.45962
236.87987 6.497973
237.87329 7.609674

Name: Diphenylamine
InChIKey: DMBHHRLKUKUOEG-UHFFFAOYSA-N
DB#: 169
Retention_index: 1609.0
Formula: H11C12N
ExactMass: 169.08914
Comments: "Sample=8270 MegaMix Standard" "SMILES=c1ccc(cc1)Nc2ccccc2" "CID=11487" "InChI=InChI=1S/C12H11N/c1-3-7-11(8-4-1)13-12-9-5-2-6-10-12/h1-10,13H"
Num peaks: 99
50.015137 12.238712
51.02297 48.30693
52.01822 2.8289096
52.02632 2.0823014
52.03077 2.2770433
57.526875 1.1892626
58.528416 4.50035
61.00735 1.2377738
62.01515 4.293584
63.022987 18.10956
64.018234 1.6230011
64.0308 4.238008
65.02609 1.3977494
65.03865 25.42851
66.04197 1.4250574
66.04646 28.402151
67.04983 1.4974664
69.52691 7.9720464
70.030846 1.4019215
70.52845 9.1550455
71.026085 1.0835273
71.53628 10.48875
72.03798 1.2214066
74.0152 7.309254
75.023026 4.6753764
76.03085 5.055198
77.03263 2.156653
77.03868 45.04245
78.04207 3.0430055
78.046486 4.7960854
82.528496 5.5021734
83.02614 3.633022
83.536316 123.378174
84.037926 15.161241
84.54416 1.3682277
86.015236 1.0198022
87.02303 2.8588896
88.030876 1.9976143
89.038704 13.309741
90.04651 2.5445707
91.04177 2.2898061
91.05433 3.1799476
91.533775 4.399328
92.0496 2.7379541
92.54164 1.1033428
93.05741 2.9680877
95.04925 2.9336905
101.038734 1.4758084
102.04652 4.2696123
103.04179 1.1012368
103.054306 2.0467548
104.04957 7.9144783
105.04489 1.205139
111.02302 1.0064247
113.03869 8.223183
114.03392 1.0071013
114.04647 4.9897594
115.054344 53.3045
116.049644 5.955661
116.05767 4.559167
116.062256 2.1516428
117.05738 4.716071
126.04656 4.3127346
127.0545 4.9290495
128.04964 6.313888
128.0622 7.5041857
129.04492 1.4426149
129.07013 1.1981115
130.06522 2.9146183
137.03885 1.5608056
138.04678 1.4748629
139.05435 47.610374
140.04982 22.073841
140.05696 3.0935557
140.06325 6.277581
141.05254 1.5137527
141.0582 1.4363408
141.07005 47.065296
142.06517 1.4846258
142.07251 2.067805
142.07878 9.985466
143.07317 10.677145
143.08067 1.166191
144.07637 1.105373
145.06497 2.3399687
151.05447 1.7136624
152.06241 1.2779957
153.05765 3.324776
154.0654 20.069395
155.06056 4.111092
155.06876 2.2766209
164.0499 3.7905788
165.05783 1.7291929
166.06532 70.59817
167.07314 461.08868
168.08067 819.03687
169.08821 999.0
170.09212 118.819786
171.09576 6.5167174

Name: Hexachlorobenzene
InChIKey: CKAPSXZOOQJIBF-UHFFFAOYSA-N
DB#: 172
Retention_index: 1687.0
Formula: C6Cl6
ExactMass: 283.81018
Comments: "Sample=8270 MegaMix Standard" "SMILES=c1(c(c(c(c(c1Cl)Cl)Cl)Cl)Cl)Cl" "CID=8370" "InChI=InChI=1S/C6Cl6/c7-1-2(8)4(10)6(12)5(11)3(1)9"
Num peaks: 135
46.96832 9.483665
48.96536 3.4193213
59.99948 4.1190476
61.007313 4.9305987
62.015137 7.9503703
70.968376 37.635513
71.966866 7.2449927
71.999565 1.1114154
72.96542 10.811309
81.937256 3.1972382
82.96841 4.290018
83.934326 2.1196682
84.96547 1.3160664
88.452835 20.299583
88.95449 1.1652676
89.45135 19.492294
89.95305 1.1852187
90.01017 5.329035
90.44985 6.451645
93.937256 8.530972
94.96839 24.65136
95.934326 5.339519
95.971756 1.2702664
96.965485 8.025007
96.98405 12.035245
98.98114 3.8413556
100.00572 9.859732
105.937294 78.129486
106.4389 3.5183945
106.935814 75.317924
106.96842 59.494682
107.43744 4.565176
107.934296 51.46118
107.97184 3.8237696
108.43597 2.2483568
108.93293 8.150668
108.96547 19.990347
109.93141 2.630088
109.96886 1.1856642
116.906105 3.1404014
117.93729 63.20442
118.90319 3.3165827
118.940636 2.505118
119.93437 40.943382
120.93767 1.735502
121.93138 6.8365083
122.96339 4.8173733
123.421776 1.5622563
123.971245 7.4079046
124.42023 2.4278998
124.96041 1.6210763
125.418816 1.587007
125.96834 2.3309827
129.93738 20.202229
131.93442 12.893425
133.93147 2.0257218
134.97469 2.2552192
140.9062 43.099415
141.40793 2.0438373
141.90482 61.269424
141.93738 220.47015
142.40643 4.039565
142.90327 61.00771
142.94067 13.665546
143.40492 3.0955014
143.90176 20.73957
143.93443 142.02054
144.40353 1.0429366
144.90031 8.6672945
144.93773 8.659475
145.93149 22.748262
146.93486 1.4279133
152.90622 3.9016438
154.90329 3.9448614
156.90022 1.0270545
164.90627 10.91994
166.90341 11.117823
168.90039 3.5229428
176.90623 84.70096
177.90967 5.262717
178.90327 80.98339
179.90657 5.0223694
180.90031 26.982126
181.90355 1.677971
182.89726 2.7249813
187.8753 5.3359838
189.8721 6.7966766
191.86931 3.0907898
211.87512 106.21067
212.8786 6.695092
213.87224 135.41522
214.87563 10.575483
215.86928 87.289665
216.87244 5.520197
217.86621 18.446548
219.86311 1.4537628
227.87054 3.2359567
228.87758 2.6590545
229.86705 4.349515
229.88489 1.725101
230.87474 3.6928406
231.86417 1.9907739
231.88202 2.0329213
232.87224 1.7346334
234.84357 1.9377822
236.84128 3.5216641
238.83846 1.985278
246.84404 179.6555
247.84746 11.510146
248.84114 287.3385
249.84442 18.4646
250.83807 182.83417
251.84187 11.685304
252.83528 57.62844
253.83855 3.5392237
254.83214 8.7282715
274.85034 15.101099
276.84723 24.669296
277.85043 1.2078232
278.8446 15.042263
280.84073 4.721959
281.81284 522.3163
282.81635 32.83842
282.8363 1.0357193
283.81 999.0
284.8133 62.31723
284.83472 1.2303026
285.77527 1.5492363
285.80698 798.7722
286.8103 50.103897
287.80402 337.1829
288.80743 20.239933
289.80115 78.233116
290.80392 4.834664
291.7979 9.435322

Name: 2-Chloro-5-methylphenol
InChIKey: SMFHPCZZAAMJJO-UHFFFAOYSA-N
DB#: 37
Retention_index: 1092.0
Formula: H7C7OCl
ExactMass: 142.01854
Comments: "Sample=Pure sample" "SMILES=Cc1ccc(c(c1)O)Cl" "CID=12008" "InChI=InChI=1S/C7H7ClO/c1-5-2-3-6(8)7(9)4-5/h2-4,9H,1H3"
Num peaks: 68
46.968315 1.0142837
49.00727 1.675526
50.01511 23.637486
51.022945 69.96958
52.026314 3.1391325
52.030754 12.419531
53.002205 10.509738
53.038586 4.877804
55.017845 2.2757945
60.98398 1.9984305
61.007317 6.7839503
62.015125 12.620142
63.02297 25.138067
64.026306 1.3170135
65.038635 1.3924124
66.01004 2.2606878
67.01786 2.7190762
71.97615 2.6629028
72.98401 13.292132
73.0073 2.4305348
74.01516 14.348738
74.98109 4.3019276
75.01864 1.0486717
75.02301 10.502276
76.03081 6.144867
77.00235 2.773327
77.03864 302.1698
78.04204 20.59973
78.04648 29.556187
79.01789 3.7108376
79.054276 126.06701
80.05767 8.2906275
81.03357 2.1982203
81.04479 1.4137977
82.05264 1.8852639
83.97626 1.5950552
84.98395 1.9328735
85.00741 2.7941964
86.01513 2.770849
86.99968 2.2203696
87.023 2.3741992
89.03866 10.197495
95.0492 20.458359
96.05258 1.2301129
96.98413 2.0254335
98.99955 2.053537
105.033585 26.515833
105.04482 9.606135
106.03694 1.9597813
106.041374 1.5992286
107.04917 999.0
108.05249 75.870445
109.0561 1.4337778
112.00739 3.5353525
113.01529 9.952399
114.004555 1.1032357
114.994545 1.5123248
115.01228 3.094067
122.99952 1.6483585
124.0075 1.1530662
125.01529 7.3905306
127.01232 2.1945186
141.0103 99.32618
142.01807 541.58765
143.00732 31.52875
143.02133 41.173428
144.01508 174.85861
145.01843 13.075579

Name: Pentachlorophenol
InChIKey: IZUPBVBPLAPZRR-UHFFFAOYSA-N
DB#: 173
Retention_index: 1732.0
Formula: HC6OCl5
ExactMass: 265.84406
Comments: "Sample=8270 MegaMix Standard" "SMILES=c1(c(c(c(c(c1Cl)Cl)O)Cl)Cl)Cl" "CID=992" "InChI=InChI=1S/C6HCl5O/c7-1-2(8)4(10)6(12)5(11)3(1)9/h12H"
Num peaks: 220
41.03859 12.553661
43.05424 21.420652
46.968327 8.198334
48.965363 2.9929762
50.015106 3.0399697
55.054256 7.7694936
56.062096 3.9387271
57.069916 48.204987
58.073254 1.9735129
58.96834 1.2387092
59.99948 12.869953
61.007317 22.921585
61.48135 1.3052304
62.015133 1.4369806
62.96326 2.0393484
64.96833 51.87179
65.46999 2.7613523
65.96686 33.886917
66.46854 1.5576042
67.054306 2.6573389
68.062096 1.0239844
69.06993 12.209476
70.07777 7.6705294
70.96838 23.040033
71.0856 45.458027
71.976204 5.5564337
72.08895 2.286247
72.96542 8.068925
73.97325 2.0053551
76.95674 19.236113
77.00228 3.0076427
77.955246 20.277159
78.95376 6.377032
78.965866 6.5733933
79.964386 4.4970417
81.069984 1.1071507
81.937256 12.097769
82.07786 1.4506552
82.45284 25.19139
82.945114 7.3145843
82.96837 5.649416
83.08566 5.094689
83.45138 25.043001
83.934296 8.73748
83.95291 1.1145672
83.976234 2.976979
84.09346 4.4083886
84.449844 8.367149
84.94212 4.195156
84.965485 1.9729494
85.10132 28.350073
85.93136 1.3869388
86.10461 1.6188
86.96025 1.0765336
86.96331 26.208925
88.9604 8.445063
90.9542 10.442609
91.05429 1.1040866
91.95274 10.505865
92.95126 3.365262
93.93724 5.5712614
94.94509 1.7372283
94.968376 110.779915
95.085724 2.0543144
95.934326 3.5428073
95.94361 1.8294679
95.97186 5.709603
95.97618 34.89435
96.9543 1.3334204
96.96544 35.184948
96.979645 1.8349357
96.98399 2.1116462
97.10128 1.8729984
97.9527 1.1423712
97.969 1.7885253
97.97321 11.093214
99.11694 6.11848
99.93723 18.830683
99.971115 2.2802136
100.00573 1.9956555
100.441284 1.436524
100.93576 24.871624
101.4398 2.15831
101.93429 12.272394
102.93279 2.7308176
103.98938 2.0315154
104.951706 2.5546498
105.937256 27.62427
105.95014 2.4000924
106.94081 1.0110335
106.94503 23.522541
106.968414 8.2379465
107.93427 18.701859
108.94213 15.940646
108.965454 2.7316084
109.93151 3.429238
110.10918 1.6292807
110.93922 2.4737048
110.963394 9.650201
111.11705 4.7002983
112.1248 1.0507509
112.96036 2.886906
113.13267 4.068777
113.93477 15.059308
114.93332 20.409122
115.435036 1.1722876
115.931816 9.466756
116.90611 17.31207
116.930275 2.06987
117.421684 1.6112682
117.93727 35.83026
118.42015 2.7693343
118.90324 17.389652
118.94059 1.2444519
119.41879 1.9259413
119.93436 23.77898
120.90021 5.3784246
121.93133 3.774278
122.96338 6.5461626
123.971245 15.026495
124.96042 1.9438281
125.13263 1.8616989
125.9684 4.938788
127.14837 2.1149552
129.93736 167.79457
130.94537 59.30795
131.92352 3.1303675
131.93434 104.723015
131.94817 2.7981763
132.92165 5.7564754
132.94243 37.607594
133.92046 3.5999594
133.93141 16.563286
133.94556 1.7433097
134.93956 6.739021
140.90617 52.32515
141.16403 1.0798402
141.90955 1.6234009
141.93733 16.25641
142.90326 50.574574
143.9066 1.5402653
143.93448 10.825509
144.90038 15.91479
145.93155 1.721137
146.89746 1.7398019
150.04674 1.3284858
151.05446 1.0111358
152.90634 10.372865
154.90324 11.137265
156.90048 3.5802038
157.93225 8.012863
159.9292 5.334424
162.9351 2.631929
163.9429 3.275399
164.90627 433.1258
165.90913 21.587864
165.93973 2.1819499
166.90327 412.88376
167.9062 20.811596
168.90036 131.35266
169.90327 6.5621934
170.89738 13.929261
176.90625 2.7846186
178.9032 2.9962761
180.90118 5.880713
181.90915 14.855953
182.89835 5.151526
182.91655 1.3376892
183.90619 14.3008585
184.895 1.4898133
184.91339 1.3154502
185.90323 4.3252077
193.90897 3.443056
195.90613 3.1040158
199.87515 149.4986
200.88312 39.29275
201.87224 188.85985
202.88016 49.174896
203.86925 90.384094
203.88112 2.3047395
204.87717 23.34695
205.86635 18.435272
205.87883 1.1968331
206.87434 4.9026594
207.86348 1.2589035
208.89626 2.082577
210.89288 1.7111822
213.87184 1.0512983
227.87004 229.12222
228.8735 14.195693
229.86708 294.9429
229.97266 3.2350435
230.87053 18.774548
231.8642 136.11168
231.9706 2.7968583
232.86778 8.649335
233.86131 29.197727
233.8786 1.521139
234.84404 17.95447
234.86476 1.5981913
235.85892 1.8438029
236.84111 28.818138
237.84541 1.4481995
238.8381 18.413452
240.83507 5.7559066
262.8391 8.17655
263.84683 631.0513
263.86145 9.099226
264.8353 9.879231
264.85025 36.735073
265.84384 999.0
266.83362 5.808566
266.84738 59.164364
267.8408 633.4969
267.85535 7.6370835
268.84433 38.468494
269.83795 196.56984
270.8415 12.539648
271.8348 30.058664
272.83804 1.8887811

Name: Pyrene
InChIKey: BBEAQIROQSPTKN-UHFFFAOYSA-N
DB#: 179
Retention_index: 2102.0
Formula: H10C16
ExactMass: 202.07825
Comments: "Sample=8270 MegaMix Standard" "SMILES=c1cc2ccc3cccc4ccc(c1)c2c34" "CID=31423" "InChI=InChI=1S/C16H10/c1-3-11-7-9-13-5-2-6-14-10-8-12(4-1)15(11)16(13)14/h1-10H"
Num peaks: 65
51.022953 1.2602859
62.015118 2.804963
63.022953 3.2384677
73.00734 1.1616024
74.015175 11.880956
75.02299 13.328238
75.52466 1.1522964
76.030815 1.4098817
85.00735 1.6962222
86.01523 5.4063544
87.023026 32.494457
87.524536 4.124634
88.03086 58.064663
88.53252 9.002908
96.02838 1.7975426
98.01521 7.837588
99.02305 22.057667
99.527275 4.5793495
100.03089 114.75457
100.53243 20.96886
101.03865 141.30844
101.540344 25.341307
102.04208 2.0294
108.02835 3.3862052
108.53239 4.6319594
109.00737 1.5028975
109.54017 1.4025664
110.015236 5.175141
111.02303 4.6338487
113.5301 2.0324883
114.53789 10.541538
115.03958 1.8433849
122.015274 7.8005257
123.02314 4.764157
124.03101 1.2814059
126.04663 2.3734488
134.01534 2.3133695
135.02325 2.6990693
146.01527 2.3538954
148.03114 1.850594
149.03886 7.838697
150.04669 17.923428
151.05547 3.2565231
152.06271 2.7953596
161.03865 1.6034504
162.04715 1.6835126
163.05453 2.4374962
173.03879 4.2886977
174.04672 28.60368
175.05444 6.989694
176.06259 6.1295977
177.06555 1.0147209
187.05426 1.3248515
193.06516 1.1721683
197.0389 3.9742017
198.04677 30.406553
199.05467 33.473114
200.06232 218.86438
201.06993 134.39449
202.05846 1.7616687
202.07765 999.0
203.08116 169.8101
204.08452 13.184778
219.08078 6.2476807
220.0839 1.0614887

