name: UNDECANE
db#: MSBNK-Fac_Eng_Univ_Tokyo-JP006877
cas#: 1120-21-4
inchikey: RSJKGSCJYJTIGS-UHFFFAOYSA-N
inchi: InChI=1S/C11H24/c1-3-5-7-9-11-10-8-6-4-2/h3-11H2,1-2H3
smiles: CCCCCCCCCCC
spectrum_type: MS
instrument_type: EI-B
instrument: HITACHI M-80B
ion_mode: POSITIVE
formula: C11H24
mw: 156
exactmass: 156.18780
comments: Parent=-1
splash: splash10-052f-9000000000-f805eba4b3f7bc1e0ad7
library: MassBank 2023.11
notes: MSBNK-Fac_Eng_Univ_Tokyo-JP006877
num peaks: 28
27 205
28 38
29 338
39 94
40 13
41 460
42 133
43 999
44 32
53 22
54 15
55 159
56 155
57 943
58 44
69 30
70 102
71 416
72 15
83 11
84 56
85 201
98 35
99 32
112 20
113 23
127 16
156 34

name: D-CAMPHOLYLMETHANE
synon: (D)-1-ACETYL-1,2,2,3-TETRAMETHYLCYCLOPENTANE
db#: MSBNK-Fac_Eng_Univ_Tokyo-JP002473
inchikey: RUPLXQJJFFMCOX-UHFFFAOYSA-N
inchi: InChI=1S/C11H20O/c1-8-6-7-11(5,9(2)12)10(8,3)4/h8H,6-7H2,1-5H3
smiles: CC(=O)C(C)(C1)C(C)(C)C(C)C1
spectrum_type: MS
instrument_type: EI-B
instrument: JEOL JMS-D-3000
ion_mode: POSITIVE
formula: C11H20O
mw: 168
exactmass: 168.15142
comments: Parent=-1
splash: splash10-0159-9100000000-912dfb9b12e355e76404
library: MassBank 2023.11
notes: MSBNK-Fac_Eng_Univ_Tokyo-JP002473
num peaks: 40
42 34
43 386
51 15
53 61
54 13
55 263
56 31
57 130
65 17
67 75
68 20
69 999
70 78
71 10
72 15
77 20
79 19
81 49
82 14
83 261
84 343
85 277
86 19
91 12
93 11
95 29
96 122
97 38
98 127
99 15
107 13
109 57
110 24
111 26
123 16
124 56
125 329
126 32
150 20
168 20

name: HEXAMETHYLBENZENE
db#: MSBNK-Fac_Eng_Univ_Tokyo-JP009709
cas#: 87-85-4
inchikey: YUWFEBAXEOLKSG-UHFFFAOYSA-N
inchi: InChI=1S/C12H18/c1-7-8(2)10(4)12(6)11(5)9(7)3/h1-6H3
smiles: Cc(c(C)1)c(C)c(C)c(C)c(C)1
spectrum_type: MS
instrument_type: EI-B
instrument: HITACHI M-80
ion_mode: POSITIVE
formula: C12H18
mw: 162
exactmass: 162.14085
comments: Parent=-1
splash: splash10-01ot-0900000000-c83ad462b100f4de117a
library: MassBank 2023.11
notes: MSBNK-Fac_Eng_Univ_Tokyo-JP009709
num peaks: 16
41 12
91 17
93 10
105 24
107 14
117 16
119 34
131 20
132 11
133 18
145 11
147 999
148 120
161 60
162 868
163 115

name: DELTA-TETRADECALACTONE
db#: MSBNK-Fac_Eng_Univ_Tokyo-JP008740
cas#: 2721-22-4
inchikey: SKQYTJLYRIFFCO-UHFFFAOYSA-N
inchi: InChI=1S/C14H26O2/c1-2-3-4-5-6-7-8-10-13-11-9-12-14(15)16-13/h13H,2-12H2,1H3
smiles: CCCCCCCCCC(C1)OC(=O)CC1
spectrum_type: MS
instrument_type: EI-B
instrument: HITACHI M-80B
ion_mode: POSITIVE
formula: C14H26O2
mw: 226
exactmass: 226.19328
comments: Parent=-1
splash: splash10-006y-9100000000-b53603437a251aaca7a3
library: MassBank 2023.11
notes: MSBNK-Fac_Eng_Univ_Tokyo-JP008740
num peaks: 63
27 148
28 26
29 235
39 99
40 27
41 517
42 314
43 459
44 23
53 36
54 48
55 440
56 136
57 121
58 23
60 25
67 59
68 78
69 201
70 337
71 402
72 19
73 37
79 14
81 50
82 48
83 112
84 83
85 28
86 27
87 14
95 35
96 53
97 88
98 59
99 999
100 56
101 23
109 17
110 33
111 29
112 37
113 14
114 104
115 24
123 16
124 24
125 18
126 10
127 18
128 11
134 16
137 17
138 12
139 12
142 13
151 16
155 16
164 42
165 16
166 19
190 10
208 30

name: TETRADECANE
db#: MSBNK-Fac_Eng_Univ_Tokyo-JP006881
cas#: 629-59-4
inchikey: BGHCVCJVXZWKCC-UHFFFAOYSA-N
inchi: InChI=1S/C14H30/c1-3-5-7-9-11-13-14-12-10-8-6-4-2/h3-14H2,1-2H3
smiles: CCCCCCCCCCCCCC
spectrum_type: MS
instrument_type: EI-B
instrument: HITACHI M-80B
ion_mode: POSITIVE
formula: C14H30
mw: 198
exactmass: 198.23475
comments: Parent=-1
splash: splash10-052f-9000000000-358738bddc4a0cb69ad1
library: MassBank 2023.11
notes: MSBNK-Fac_Eng_Univ_Tokyo-JP006881
num peaks: 35
27 125
29 296
32 14
39 61
41 509
42 108
43 996
44 23
53 18
54 23
55 219
56 136
57 999
58 38
67 12
68 17
69 54
70 93
71 530
72 25
83 34
84 52
85 319
86 16
97 15
98 26
99 57
112 22
113 33
126 17
127 21
140 10
141 15
155 11
198 31

name: TRIDECANE
db#: MSBNK-Fac_Eng_Univ_Tokyo-JP006879
cas#: 629-50-5
inchikey: IIYFAKIEWZDVMP-UHFFFAOYSA-N
inchi: InChI=1S/C13H28/c1-3-5-7-9-11-13-12-10-8-6-4-2/h3-13H2,1-2H3
smiles: CCCCCCCCCCCCC
spectrum_type: MS
instrument_type: EI-B
instrument: HITACHI M-80B
ion_mode: POSITIVE
formula: C13H28
mw: 184
exactmass: 184.21910
comments: Parent=-1
splash: splash10-052f-9000000000-4ac0138633416b7e1a3c
library: MassBank 2023.11
notes: MSBNK-Fac_Eng_Univ_Tokyo-JP006879
num peaks: 33
27 147
28 39
29 302
32 18
39 80
41 472
42 117
43 936
44 34
53 22
54 18
55 162
56 163
57 999
58 37
67 16
69 50
70 99
71 542
72 28
83 21
84 59
85 267
86 16
97 11
98 42
99 46
112 20
113 27
126 14
127 20
141 15
184 29

name: DODECANE
db#: MSBNK-Fac_Eng_Univ_Tokyo-JP005756
cas#: 112-40-3
inchikey: SNRUBQQJIBEYMU-UHFFFAOYSA-N
inchi: InChI=1S/C12H26/c1-3-5-7-9-11-12-10-8-6-4-2/h3-12H2,1-2H3
smiles: CCCCCCCCCCCC
spectrum_type: MS
instrument_type: EI-B
instrument: HITACHI M-80
ion_mode: POSITIVE
formula: C12H26
mw: 170
exactmass: 170.20345
comments: Parent=-1
splash: splash10-052f-9000000000-e297100d4245d91a3893
library: MassBank 2023.11
notes: MSBNK-Fac_Eng_Univ_Tokyo-JP005756
num peaks: 36
39 82
40 15
41 415
42 113
43 987
44 35
53 21
54 21
55 171
56 142
57 999
58 49
67 12
68 11
69 64
70 118
71 522
72 28
82 7
83 24
84 70
85 293
86 9
97 9
98 55
99 57
100 4
112 31
113 44
126 14
127 31
128 8
140 7
141 16
170 51
171 7

name: BENZYL BUTYL PHTHALATE
synon: PHTHALIC ACID BENZYL BUTYL ESTER
db#: MSBNK-Fac_Eng_Univ_Tokyo-JP005816
cas#: 85-68-7
inchikey: IRIAEXORFWYRCZ-UHFFFAOYSA-N
inchi: InChI=1S/C19H20O4/c1-2-3-13-22-18(20)16-11-7-8-12-17(16)19(21)23-14-15-9-5-4-6-10-15/h4-12H,2-3,13-14H2,1H3
smiles: CCCCOC(=O)c(c2)c(ccc2)C(=O)OCc(c1)cccc1
spectrum_type: MS
instrument_type: EI-B
instrument: HITACHI M-80
ion_mode: POSITIVE
formula: C19H20O4
mw: 312
exactmass: 312.13616
comments: Parent=-1
splash: splash10-0002-0930000000-0017c0d829036e58cd6a
library: MassBank 2023.11
notes: MSBNK-Fac_Eng_Univ_Tokyo-JP005816
num peaks: 26
56 14
91 155
92 16
104 44
105 40
106 10
107 34
122 49
123 161
124 11
132 158
133 21
135 78
136 19
149 999
150 117
151 11
177 11
178 65
205 66
206 424
207 58
238 51
239 14
312 18
313 5

name: UNDECANE
db#: MSBNK-Fac_Eng_Univ_Tokyo-JP005760
cas#: 1120-21-4
inchikey: RSJKGSCJYJTIGS-UHFFFAOYSA-N
inchi: InChI=1S/C11H24/c1-3-5-7-9-11-10-8-6-4-2/h3-11H2,1-2H3
smiles: CCCCCCCCCCC
spectrum_type: MS
instrument_type: EI-B
instrument: HITACHI M-80
ion_mode: POSITIVE
formula: C11H24
mw: 156
exactmass: 156.18780
comments: Parent=-1
splash: splash10-0a4l-9000000000-3b14c66dbcb7dadff256
library: MassBank 2023.11
notes: MSBNK-Fac_Eng_Univ_Tokyo-JP005760
num peaks: 36
39 104
40 17
42 127
43 999
44 35
51 4
52 3
53 21
54 17
55 156
56 156
57 923
58 48
67 9
68 6
69 49
70 118
71 439
72 24
82 3
83 16
84 71
85 252
86 12
97 5
98 51
99 51
100 4
112 20
113 41
114 3
126 9
127 21
128 2
156 51
157 6

name: DODECANE
db#: MSBNK-Fac_Eng_Univ_Tokyo-JP006878
cas#: 112-40-3
inchikey: SNRUBQQJIBEYMU-UHFFFAOYSA-N
inchi: InChI=1S/C12H26/c1-3-5-7-9-11-12-10-8-6-4-2/h3-12H2,1-2H3
smiles: CCCCCCCCCCCC
spectrum_type: MS
instrument_type: EI-B
instrument: HITACHI M-80B
ion_mode: POSITIVE
formula: C12H26
mw: 170
exactmass: 170.20345
comments: Parent=-1
splash: splash10-052f-9000000000-a4f0cf165600c30ffaef
library: MassBank 2023.11
notes: MSBNK-Fac_Eng_Univ_Tokyo-JP006878
num peaks: 28
27 193
28 115
29 308
39 95
41 473
42 131
43 995
44 25
53 21
54 21
55 186
56 157
57 999
58 33
69 37
70 83
71 476
72 25
83 18
84 48
85 246
86 17
98 38
99 33
112 20
113 27
127 18
170 29

