name: Epitestosterone
synon: (8R,9S,10R,13S,14S,17R)-17-hydroxy-10,13-dimethyl-1,2,6,7,8,9,11,12,14,15,16,17-dodecahydrocyclopenta[a]phenanthren-3-one
db#: MSBNK-Antwerp_Univ-METOX_N100306_FB57
inchikey: MUMGGOZAMZWBJJ-KZYORJDKSA-N
inchi: InChI=1S/C19H28O2/c1-18-9-7-13(20)11-12(18)3-4-14-15-5-6-17(21)19(15,2)10-8-16(14)18/h11,14-17,21H,3-10H2,1-2H3/t14-,15-,16-,17+,18-,19-/m0/s1
smiles: C[C@]12CC[C@H]3[C@H]([C@@H]1CC[C@H]2O)CCC4=CC(=O)CC[C@]34C
precursor_type: [M+H]+
spectrum_type: MS2
precursormz: 289.2162
instrument_type: LC-ESI-QTOF
instrument: Agilent 6560 QTOF
ion_mode: POSITIVE
collision_energy: 40 eV
formula: C19H28O2
mw: 288
exactmass: 288.2089
comments: Parent=289.2162
splash: splash10-054k-9600000000-d6721ed461731066fbe0
notes: MSBNK-Antwerp_Univ-METOX_N100306_FB57
num peaks: 67
77.0385 160
79.0543 489
81.0702 397
83.0492 71
85.0651 3
90.0479 8
91.0547 272
93.0705 182
95.0501 28
95.0856 134
97.065 999
103.0547 13
104.0629 7
105.0702 141
107.0859 53
108.0564 12
109.0647 809
111.0798 4
115.0554 5
117.0687 64
119.0856 99
120.0577 5
121.0652 17
121.1016 2
123.0801 105
125.096 3
127.0524 4
128.0623 11
129.0706 48
130.0777 28
131.0847 46
133.0646 5
133.1013 16
135.1181 2
141.0681 8
142.0776 15
143.0855 29
144.0934 8
145.101 46
147.1183 13
152.0612 4
155.0848 42
156.0914 3
157.0989 35
159.1183 28
161.1325 8
163.1094 2
167.0866 2
169.1001 33
171.1149 1
173.0954 5
173.132 1
174.1018 5
177.13 10
181.0996 5
182.1087 22
183.1147 13
185.1339 1
196.1283 2
197.1334 8
199.1088 8
201.1631 2
211.1459 6
213.1657 9
223.1462 7
238.1671 6
253.198 1

name: Progesterone
synon: (8S,9S,10R,13S,14S,17S)-17-acetyl-10,13-dimethyl-1,2,6,7,8,9,11,12,14,15,16,17-dodecahydrocyclopenta[a]phenanthren-3-one
db#: MSBNK-Antwerp_Univ-METOX_N108706_F638
inchikey: RJKFOVLPORLFTN-LEKSSAKUSA-N
inchi: InChI=1S/C21H30O2/c1-13(22)17-6-7-18-16-5-4-14-12-15(23)8-10-20(14,2)19(16)9-11-21(17,18)3/h12,16-19H,4-11H2,1-3H3/t16-,17+,18-,19-,20-,21+/m0/s1
smiles: CC(=O)[C@H]1CC[C@@H]2[C@@]1(CC[C@H]3[C@H]2CCC4=CC(=O)CC[C@]34C)C
precursor_type: [M+H]+
spectrum_type: MS2
precursormz: 315.2319
instrument_type: LC-ESI-QTOF
instrument: Agilent 6560 QTOF
ion_mode: POSITIVE
collision_energy: 10 eV
formula: C21H30O2
mw: 314
exactmass: 314.2246
comments: Parent=315.2319
splash: splash10-066s-7948000000-3ae806cf2c0a76286be0
notes: MSBNK-Antwerp_Univ-METOX_N108706_F638
num peaks: 108
71.0493 3
79.0545 36
81.0705 14
83.0484 25
83.0839 1
85.0646 24
91.055 9
93.0701 4
95.0487 5
95.0849 10
97.0648 713
99.0788 3
105.0702 3
107.051 4
107.0858 32
109.0645 519
111.0784 3
113.0979 1
117.0679 6
119.0846 17
121.0655 9
121.0999 26
123.0801 43
123.1175 6
127.0732 2
129.0685 1
131.0846 10
132.0556 1
133.101 15
135.1171 18
137.0956 9
143.0863 5
145.1004 25
147.1168 20
149.0943 11
149.1321 10
151.108 2
157.0996 9
158.1052 3
159.1164 30
161.096 3
161.1327 9
163.1115 16
163.1453 1
165.1253 1
167.083 1
167.1098 3
169.0979 3
171.1168 19
173.0953 2
173.1322 25
175.1129 5
175.1461 1
177.1282 11
179.1392 5
183.1153 8
185.133 5
187.1101 2
187.1481 6
188.1527 1
189.1269 10
189.1633 3
191.1422 9
195.1159 2
197.13 3
199.1492 15
201.1288 6
201.1635 19
203.1417 7
205.1594 5
209.1331 4
211.1481 2
213.1615 9
215.1443 13
215.1807 18
216.1837 2
217.1897 6
223.146 9
224.1532 2
225.1628 2
227.1401 5
227.1793 13
228.1817 1
229.1599 10
229.1926 2
231.1729 7
233.1896 4
235.1715 1
237.1615 2
239.1793 28
240.1921 1
241.1564 14
245.1919 5
246.193 2
250.1685 6
251.1778 3
253.1957 4
255.2106 29
257.1879 5
269.1868 4
269.2295 6
271.2038 2
273.2212 14
279.2108 34
280.2131 8
297.2203 147
298.2225 5
315.2322 999

name: Norfludiazepam
synon: Norflurazepam
synon: 7-chloro-5-(2-fluorophenyl)-1,3-dihydro-1,4-benzodiazepin-2-one
db#: MSBNK-Athens_Univ-AU228604
inchikey: UVCOILFBWYKHHB-UHFFFAOYSA-N
inchi: InChI=1S/C15H10ClFN2O/c16-9-5-6-13-11(7-9)15(18-8-14(20)19-13)10-3-1-2-4-12(10)17/h1-7H,8H2,(H,19,20)
smiles: c1ccc(c(c1)C2=NCC(=O)Nc3c2cc(cc3)Cl)F
precursor_type: [M+H]+
spectrum_type: MS2
precursormz: 289.0538
instrument_type: LC-ESI-QTOF
instrument: Bruker maXis Impact
ion_mode: POSITIVE
collision_energy: 40 eV
formula: C15H10ClFN2O
mw: 288
exactmass: 288.0465688
comments: Parent=289.0538
splash: splash10-002f-0790000000-3a22f4d668715706b27f
notes: MSBNK-Athens_Univ-AU228604
num peaks: 102
122.0392 11
122.9982 5
123.0225 8
124.0557 8
129.0437 7
130.0517 17
131.0593 6
133.0509 15
134.0387 39
135.0454 7
136.0557 5
138.0091 46
140.0252 999
141.028 91
142.022 274
143.0256 10
150.0092 20
152.0061 7
152.0615 6
158.0465 59
162.0343 5
163.0045 14
164.012 5
165.0201 284
166.0039 80
166.0238 28
167.017 84
168.0012 18
168.0202 15
169.0634 5
170.0512 8
177.0559 19
178.0633 12
179.0715 75
180.0762 12
183.059 20
193.0153 10
196.0556 15
197.062 16
198.0703 53
199.0746 18
205.075 61
206.0829 174
207.0671 10
207.0867 33
208.0538 11
209.0622 34
210.0694 16
211.0781 101
212.0804 17
213.0329 6
214.0411 252
215.0444 33
216.038 82
216.0674 5
217.0209 20
217.042 5
219.0171 5
224.0233 5
224.0497 6
224.0736 20
225.0576 39
225.081 77
226.0893 920
227.0746 18
227.0924 125
228.0447 17
228.095 6
230.0395 8
232.0314 37
234.0282 13
234.0469 22
234.0777 7
235.0533 5
235.0675 7
236.0454 8
236.0735 18
237.0584 13
239.0357 7
240.0437 15
241.0515 24
242.0406 6
242.0544 5
243.049 8
244.0319 22
245.0398 38
246.034 7
246.0415 9
247.037 13
253.077 7
254.0832 5
259.0424 47
260.0268 10
260.0498 39
261.0576 53
262.0502 11
262.0603 10
263.0552 19
271.0423 8
289.0533 130
290.056 25
291.0513 42

name: Testosterone
db#: MSBNK-BAFG-CSL2311095046
inchikey: MUMGGOZAMZWBJJ-DYKIIFRCSA-N
inchi: InChI=1S/C19H28O2/c1-18-9-7-13(20)11-12(18)3-4-14-15-5-6-17(21)19(15,2)10-8-16(14)18/h11,14-17,21H,3-10H2,1-2H3/t14-,15-,16-,17-,18-,19-/m0/s1
smiles: C[C@]12CC[C@H]3[C@@H](CCC4=CC(=O)CC[C@]34C)[C@@H]1CC[C@@H]2O
precursor_type: [M+H]+
spectrum_type: MS2
precursormz: 289.2162
instrument_type: LC-ESI-QTOF
instrument: TripleTOF 5600 SCIEX
ion_mode: POSITIVE
collision_energy: 30
formula: C19H28O2
mw: 288
exactmass: 288.2089
comments: Parent=289.2162
splash: splash10-052b-6940000000-570cd5f34139c4090a87
notes: MSBNK-BAFG-CSL2311095046
num peaks: 45
77.0436 14
79.0581 47
81.0736 51
83.0529 49
91.057 15
93.0732 32
95.0879 40
97.0691 999
97.1064 17
105.0723 24
107.0881 33
109.0683 940
109.1003 20
119.0867 31
121.0665 10
121.1025 36
123.0824 93
131.088 22
133.1038 27
135.1194 17
143.0888 13
145.1036 40
147.1189 34
157.1046 23
159.1193 46
161.1343 36
163.1138 18
169.105 10
171.1188 24
173.1355 18
175.1508 35
177.1302 27
183.1189 13
185.1365 17
187.1515 43
189.1302 11
197.1358 30
199.1513 30
201.1674 24
211.1506 20
213.1671 44
227.1825 14
253.199 147
271.2099 100
289.2213 477

name: 17alpha-Hydroxyprogesterone
db#: MSBNK-BAFG-CSL2311107850
inchikey: DBPWSSGDRRHUNT-CEGNMAFCSA-N
inchi: InChI=1S/C21H30O3/c1-13(22)21(24)11-8-18-16-5-4-14-12-15(23)6-9-19(14,2)17(16)7-10-20(18,21)3/h12,16-18,24H,4-11H2,1-3H3/t16-,17+,18+,19+,20+,21+/m1/s1
smiles: CC(=O)[C@@]1(O)CC[C@H]2[C@@H]3CCC4=CC(=O)CC[C@]4(C)[C@H]3CC[C@]12C
precursor_type: [M+H]+
spectrum_type: MS2
precursormz: 331.2268
instrument_type: LC-ESI-QTOF
instrument: TripleTOF 5600 SCIEX
ion_mode: POSITIVE
collision_energy: 30
formula: C21H30O3
mw: 330
exactmass: 330.2195
comments: Parent=331.2268
splash: splash10-0532-3964000000-f826c39c3073e32c9139
notes: MSBNK-BAFG-CSL2311107850
num peaks: 89
43.0266 26
79.0563 27
81.0716 42
83.0504 47
91.0554 10
93.0703 27
95.0856 41
97.0662 990
105.0693 28
107.0853 36
109.0652 999
111.0797 14
119.0846 39
121.0639 26
121.1007 31
123.0795 124
131.0848 28
133.1006 42
135.0807 23
135.116 25
137.0956 57
143.0845 32
145.1005 100
147.0788 10
147.1167 58
149.0953 29
149.1317 14
155.0866 13
157.1014 49
159.1167 81
161.0957 17
161.1317 53
163.1115 129
163.1453 19
169.1007 25
171.1166 86
173.0961 14
173.132 72
175.1108 10
175.1476 74
177.1269 86
183.1166 38
185.1317 56
187.1114 21
187.1472 48
189.1262 52
189.1644 19
191.1433 30
195.1164 21
197.1324 62
199.1475 74
201.1268 26
201.1624 15
203.1421 40
205.158 61
209.1314 21
211.1477 68
213.1294 18
213.1638 72
215.1422 31
217.1578 58
223.1464 24
225.1632 40
227.1415 17
227.1794 16
229.1575 39
231.1743 43
235.1488 17
237.1633 67
239.1436 24
241.1592 38
243.1726 23
251.1786 36
252.1869 25
253.159 10
253.1947 290
255.1732 78
259.168 30
267.172 10
267.2099 22
269.19 58
270.1976 32
271.205 294
277.1945 76
285.2195 17
289.2168 40
295.206 317
313.2159 453
331.2273 864

name: Norethindrone
synon: 17-Ethynyl-17-hydroxyestr-4-en-3-one
synon: 17-ethynyl-17-hydroxy-13-methyl-1,2,6,7,8,9,10,11,12,14,15,16-dodecahydrocyclopenta[a]phenanthren-3-one
db#: MSBNK-CASMI_2016-SM872301
inchikey: VIKNJXKGJWUCNN-UHFFFAOYSA-N
inchi: InChI=1S/C20H26O2/c1-3-20(22)11-9-18-17-6-4-13-12-14(21)5-7-15(13)16(17)8-10-19(18,20)2/h1,12,15-18,22H,4-11H2,2H3
smiles: CC12CCC3C(CCC4=CC(=O)CCC34)C1CCC2(O)C#C
precursor_type: [M+H]+
spectrum_type: MS2
precursormz: 299.2006
instrument_type: LC-ESI-QFT
instrument: Q Exactive Plus Orbitrap Thermo Scientific
ion_mode: POSITIVE
collision_energy: 35  (nominal)
formula: C20H26O2
mw: 298
exactmass: 298.19328
comments: Parent=299.2006
splash: splash10-0002-2980000000-df89e74e56f790c12ed4
notes: MSBNK-CASMI_2016-SM872301
num peaks: 124
53.0388 2
55.0181 3
55.0544 5
67.0543 18
69.07 6
77.0387 3
79.0542 48
81.0335 4
81.0699 44
83.0492 82
91.0542 53
93.0699 40
95.0492 7
95.0855 27
97.0648 8
103.0541 4
105.0699 56
107.0492 33
107.0855 29
109.0648 201
109.1012 18
111.0804 11
115.0542 8
116.0622 2
117.0699 40
119.0855 73
121.0648 10
121.1012 25
123.0805 17
123.1169 5
128.062 8
129.0699 30
130.0777 5
131.0855 56
133.0648 6
133.1012 25
135.0804 40
135.1167 7
137.096 4
141.0699 11
142.0779 5
143.0855 45
144.0935 3
145.1012 59
147.0805 9
147.1168 13
149.0961 21
149.1325 2
151.1119 1
153.0699 2
154.0777 2
155.0854 15
156.0935 4
157.1012 28
158.1092 1
159.0805 10
159.1168 20
161.096 19
161.1325 11
163.1118 14
165.07 4
166.0776 1
167.0855 6
168.0934 1
169.1012 27
170.1089 2
171.1168 49
173.0962 5
173.1325 25
175.1117 12
179.0851 4
180.0933 2
181.1011 14
182.1091 2
183.1167 16
185.0961 8
185.1325 17
187.1117 7
187.1484 5
189.1273 7
191.0857 1
192.0935 1
193.1012 6
194.1089 2
195.1169 14
197.096 1
197.1326 11
198.1402 1
199.1117 5
199.1482 8
201.1276 6
203.1436 1
205.1014 1
206.1092 2
207.1169 10
208.1249 2
209.1323 5
211.1119 4
211.1481 15
213.1274 5
213.1639 26
215.143 2
219.1172 1
221.1325 13
222.1402 2
223.1482 19
225.1278 5
225.164 2
227.1424 4
229.1589 2
231.1744 62
234.1394 1
235.148 7
237.1639 5
239.1433 3
239.1794 8
241.1585 4
248.1561 2
253.1583 5
255.175 2
257.1902 2
263.1795 17
281.1904 32
299.2007 999

name: Testosterone
synon: 17-Hydroxyandrost-4-en-3-one
synon: 17-hydroxy-10,13-dimethyl-1,2,6,7,8,9,11,12,14,15,16,17-dodecahydrocyclopenta[a]phenanthren-3-one
db#: MSBNK-CASMI_2016-SM873001
inchikey: MUMGGOZAMZWBJJ-UHFFFAOYSA-N
inchi: InChI=1S/C19H28O2/c1-18-9-7-13(20)11-12(18)3-4-14-15-5-6-17(21)19(15,2)10-8-16(14)18/h11,14-17,21H,3-10H2,1-2H3
smiles: CC12CCC3C(CCC4=CC(=O)CCC34C)C1CCC2O
precursor_type: [M+H]+
spectrum_type: MS2
precursormz: 289.2162
instrument_type: LC-ESI-QFT
instrument: Q Exactive Plus Orbitrap Thermo Scientific
ion_mode: POSITIVE
collision_energy: 35  (nominal)
formula: C19H28O2
mw: 288
exactmass: 288.20893
comments: Parent=289.2162
splash: splash10-000j-6690000000-9d018a9a0c5b30d7bf71
notes: MSBNK-CASMI_2016-SM873001
num peaks: 62
67.0543 7
69.07 5
79.0542 24
81.0699 32
83.0492 29
85.0648 1
91.0542 8
93.0699 22
95.0492 2
95.0855 23
97.0648 601
105.0699 13
107.0493 1
107.0856 14
109.0648 478
117.07 2
119.0856 15
121.0648 6
121.1012 12
123.0805 40
129.07 1
131.0855 8
133.1013 11
135.0806 1
135.1168 6
137.096 1
143.0855 6
145.1011 12
147.1168 12
149.0961 2
149.1326 4
155.0856 2
157.1013 10
159.1169 13
161.0963 2
161.1324 8
163.1118 6
163.1481 2
169.1012 2
171.1168 9
173.1325 6
175.1119 3
175.1482 11
177.1274 5
183.1165 3
185.1326 4
187.1482 12
189.1273 3
189.1641 7
197.1325 8
199.1482 9
201.1638 6
211.1481 7
213.1638 11
215.1431 2
219.1744 2
225.1639 3
227.1797 3
243.2107 2
253.1951 39
271.2058 37
289.2163 999

name: Dehydroepiandrosterone (DHEA)
synon: trans-Dehydroandosterone
synon: (3S,8R,9S,10R,13S,14S)-10,13-dimethyl-3-oxidanyl-1,2,3,4,7,8,9,11,12,14,15,16-dodecahydrocyclopenta[a]phenanthren-17-one
db#: MSBNK-Eawag-EQ308506
inchikey: FMGSKLZLMKYGDP-USOAJAOKSA-N
inchi: InChI=1S/C19H28O2/c1-18-9-7-13(20)11-12(18)3-4-14-15-5-6-17(21)19(15,2)10-8-16(14)18/h3,13-16,20H,4-11H2,1-2H3/t13-,14-,15-,16-,18-,19-/m0/s1
smiles: O=C3[C@]2(CC[C@@H]1[C@@]4(C(=C/C[C@H]1[C@@H]2CC3)\C[C@@H](O)CC4)C)C
precursor_type: [M+H]+
spectrum_type: MS2
precursormz: 289.2162
instrument_type: LC-ESI-QFT
instrument: Q Exactive Orbitrap Thermo Scientific
ion_mode: POSITIVE
collision_energy: 90 (nominal)
formula: C19H28O2
mw: 288
exactmass: 288.20893
comments: Parent=289.2162
splash: splash10-0036-4900000000-26c8272483a80d1b5eab
notes: MSBNK-Eawag-EQ308506
num peaks: 79
51.0227 4
53.0386 1
57.0699 2
65.0385 50
67.0542 347
69.0698 64
71.0491 28
77.0385 14
78.0462 2
79.0542 570
81.0699 580
83.0491 19
83.0855 14
91.0542 999
93.0698 298
95.0491 158
95.0855 120
97.0648 91
103.0542 50
105.0699 770
107.0855 109
109.0648 23
109.1011 11
115.0542 138
116.062 70
117.0698 373
118.0777 14
119.0855 236
121.0651 2
121.1011 36
123.0804 9
128.062 241
129.0698 454
130.0777 140
131.0855 417
132.0934 9
133.1011 148
135.1167 23
141.0698 232
142.0778 391
143.0855 369
144.0933 79
145.1011 304
146.0728 4
147.1168 70
149.0961 3
152.0624 5
153.0698 97
154.0776 65
155.0855 266
156.0934 174
157.1012 316
158.1091 24
159.1168 110
161.096 3
165.07 16
167.0855 166
168.0933 100
169.1011 220
170.1089 38
171.1167 174
172.1245 21
173.1324 39
181.1011 90
182.109 112
183.1168 177
184.1245 20
185.1325 54
195.117 32
196.1245 28
197.1324 76
198.1402 54
199.1481 4
209.1326 27
211.1481 15
213.1638 25
223.1482 33
225.1637 4
237.1636 2

name: Testosterone propionate
synon: [(8R,9S,10R,13S,14S,17S)-10,13-dimethyl-3-oxo-1,2,6,7,8,9,11,12,14,15,16,17-dodecahydrocyclopenta[a]phenanthren-17-yl] propanoate
db#: MSBNK-LCSB-LU139102
inchikey: PDMMFKSKQVNJMI-BLQWBTBKSA-N
inchi: InChI=1S/C22H32O3/c1-4-20(24)25-19-8-7-17-16-6-5-14-13-15(23)9-11-21(14,2)18(16)10-12-22(17,19)3/h13,16-19H,4-12H2,1-3H3/t16-,17-,18-,19-,21-,22-/m0/s1
smiles: CCC(=O)O[C@H]1CC[C@H]2[C@@H]3CCC4=CC(=O)CC[C@]4(C)[C@H]3CC[C@]12C
precursor_type: [M+H]+
spectrum_type: MS2
precursormz: 345.2424
instrument_type: LC-ESI-QFT
instrument: Q Exactive Orbitrap (Thermo Scientific)
ion_mode: POSITIVE
collision_energy: 30
formula: C22H32O3
mw: 344
exactmass: 344.2351
comments: Parent=345.2424
splash: splash10-052b-7931000000-59116cb629acf25e4811
notes: MSBNK-LCSB-LU139102
num peaks: 80
53.0386 1
55.0178 1
55.0543 1
57.0335 133
67.0542 4
69.0698 4
77.0386 1
79.0541 13
81.0699 33
83.0491 46
83.0856 4
91.0541 2
93.0699 23
95.0855 44
97.0648 999
105.0699 15
107.0492 3
107.0855 23
109.0648 604
111.0804 2
117.0699 2
119.0855 15
121.0648 14
121.1011 35
123.0804 49
123.1167 6
129.0698 2
131.0856 14
133.1012 19
135.0805 6
135.1168 20
137.0962 5
141.0705 1
143.0855 12
145.1011 39
147.0807 4
147.1168 42
149.0961 9
149.1325 21
151.1115 1
155.0856 3
157.1012 23
159.1169 38
161.0957 6
161.1324 35
163.1118 19
163.148 32
169.101 5
171.1167 41
173.1324 32
175.1118 10
175.1481 118
177.1273 22
183.1167 13
185.1324 18
187.1116 2
187.1479 31
189.1271 9
189.1637 40
191.1431 2
197.1325 32
199.148 6
201.1277 5
201.1637 20
203.1435 3
211.1481 25
213.1636 27
215.1431 9
225.1635 15
227.1793 11
229.1588 3
229.1947 6
253.195 214
255.1748 11
271.2055 203
273.1856 2
289.2162 115
309.2207 2
327.2321 2
345.2424 264

name: 17-Methyltestosterone
synon: Methyltestosterone
synon: (8R,9S,10R,13S,14S,17S)-17-hydroxy-10,13,17-trimethyl-2,6,7,8,9,11,12,14,15,16-decahydro-1H-cyclopenta[a]phenanthren-3-one
db#: MSBNK-LCSB-LU107202
inchikey: GCKMFJBGXUYNAG-HLXURNFRSA-N
inchi: InChI=1S/C20H30O2/c1-18-9-6-14(21)12-13(18)4-5-15-16(18)7-10-19(2)17(15)8-11-20(19,3)22/h12,15-17,22H,4-11H2,1-3H3/t15-,16+,17+,18+,19+,20+/m1/s1
smiles: C[C@]1(O)CC[C@H]2[C@@H]3CCC4=CC(=O)CC[C@]4(C)[C@H]3CC[C@]12C
precursor_type: [M+H]+
spectrum_type: MS2
precursormz: 303.2319
instrument_type: LC-ESI-QFT
instrument: Q Exactive Orbitrap (Thermo Scientific)
ion_mode: POSITIVE
collision_energy: 30
formula: C20H30O2
mw: 302
exactmass: 302.2246
comments: Parent=303.2319
splash: splash10-0udj-5968000000-f06861c4fda459385929
notes: MSBNK-LCSB-LU107202
num peaks: 78
67.0543 2
69.07 3
71.0492 2
79.0541 4
81.0699 12
83.0491 31
83.0855 3
85.0648 8
93.0699 7
95.0856 56
97.0648 560
99.0805 5
105.07 6
107.0492 1
107.0855 25
109.0648 353
109.1012 27
111.0805 4
119.0856 14
121.0649 15
121.1013 33
123.0804 30
123.1169 5
131.0856 4
133.1011 18
135.0803 2
135.1168 27
137.096 5
137.1325 6
143.0855 3
145.1012 15
147.0809 1
147.1168 15
149.0962 5
149.1325 16
151.1117 6
155.0854 2
157.1011 9
159.1168 37
161.096 4
161.1326 25
163.1117 12
163.1481 17
169.101 2
171.1168 14
173.1326 20
175.1117 7
175.1482 25
177.1275 38
177.1638 48
183.1167 4
185.1325 22
187.1483 12
189.1273 9
189.1638 113
191.1432 8
197.1329 8
199.1483 12
201.1275 2
201.164 23
203.1431 5
203.1795 31
211.1482 35
213.1637 3
215.1426 7
215.1797 15
217.1589 3
225.1635 14
227.1795 73
229.1587 23
239.1795 4
241.1952 4
243.1746 9
243.2105 3
245.19 58
267.2107 159
285.2214 308
303.2319 999

name: Dihydrokaempferol
db#: MSBNK-RIKEN-PR304078
inchikey: PADQINQHPQKXNL-UHFFFAOYSA-N
inchi: InChI=1S/C15H12O6/c16-8-3-1-7(2-4-8)15-14(20)13(19)12-10(18)5-9(17)6-11(12)21-15/h1-6,14-18,20H
smiles: OC1C(OC2=CC(O)=CC(O)=C2C1=O)C1=CC=C(O)C=C1
precursor_type: [M+H]+
spectrum_type: MS2
precursormz: 289.0706646
instrument_type: LC-ESI-QTOF
instrument: LC, Waters Acquity UPLC System; MS, Waters Xevo G2 Q-Tof
ion_mode: POSITIVE
collision_energy: 6V
formula: C15H12O6
mw: 288
exactmass: 288.255
comments: Parent=289.0706646
splash: splash10-000i-0190000000-26de7622b794109d8b65
notes: MSBNK-RIKEN-PR304078
num peaks: 19
107.0424 10
107.0475 26
135.04021 9
149.01939 16
149.02567 22
153.01941 228
154.01921 15
195.03014 68
215.06938 31
216.07735 5
243.06578 366
244.05977 27
244.07318 42
245.07277 7
271.06024 303
272.06165 42
273.07306 15
289.03802 10
289.0708 999

name: N-(3-Indolylacetyl)-L-isoleucine
synon: Indole-3-acetyl-L-isoleucine
synon: IAA-Ile
synon: IAA-L-Ile
synon: L-isoleucine, N-(1H-indol-3-ylacetyl)-
synon: L-Isoleucine, N-(1H-indol-3-ylacetyl)- (9CI)
db#: MSBNK-RIKEN-PR020131
inchikey: WPTUQMUCTTVOFW-UHFFFAOYSA-N
inchi: InChI=1S/C16H20N2O3/c1-3-10(2)15(16(20)21)18-14(19)8-11-9-17-13-7-5-4-6-12(11)13/h4-7,9-10,15,17H,3,8H2,1-2H3,(H,18,19)(H,20,21)
smiles: CC[C@H](C)[C@@H](C(=O)O)NC(=O)CC1=CNC2=CC=CC=C21
precursor_type: [M+H]+
spectrum_type: MS2
precursormz: 289
instrument_type: LC-ESI-QQ
instrument: UPLC Waters, Quattro Ultima Pt Micromass
ion_mode: POSITIVE
collision_energy: 10.0 eV
formula: C16H20N2O3
mw: 288
exactmass: 288.14739
comments: Parent=289
splash: splash10-000f-1390000000-0d75a61803224b729d07
notes: MSBNK-RIKEN-PR020131
num peaks: 14
85.797 227
129.313 21
129.851 329
131.435 55
132.024 246
206.852 35
227.913 10
242.495 59
243.03 999
243.694 13
248.118 22
270.962 65
288.939 298
289.56 97

name: Cianidanol
synon: trans-3,3',4',5,7-Pentahydroxyflavane
synon: 2-(3,4-dihydroxyphenyl)-3,4-dihydro-2H-1-Benzopyran-3,5,7-triol
synon: (+)-Catechin hydrate
synon: Cyanidanol
synon: (2R,3S)-2-(3,4-dihydroxyphenyl)chroman-3,5,7-triol
synon: Catechinic acid
synon: catechol
synon: 3,3',4',5,7-Flavanpentol
synon: (2R,3S)-(+)-Catechin
synon: Ct
synon: Catechuic Acid
db#: MSBNK-RIKEN_ReSpect-PT204550
inchikey: PFTAWBLQPZVEMU-DZGCQCFKSA-N
inchi: InChI=1S/C15H14O6/c16-8-4-11(18)9-6-13(20)15(21-14(9)5-8)7-1-2-10(17)12(19)3-7/h1-5,13,15-20H,6H2/t13-,15+/m0/s1
smiles: C1[C@@H]([C@H](OC2=CC(=CC(=C21)O)O)C3=CC(=C(C=C3)O)O)O
spectrum_type: MS2
precursormz: 289.07123
instrument_type: LC-ESI-QTOF
instrument: Q-Tof Premier, Waters
ion_mode: NEGATIVE
collision_energy: Ramp 5-45 V
formula: C15H14O6
mw: 290
exactmass: 290.271
comments: Parent=289.07123
splash: splash10-052r-0980000000-97f9a54412368150d277
notes: MSBNK-RIKEN_ReSpect-PT204550
num peaks: 14
97.0303 122
109.0301 432
121.0298 101
123.0456 418
125.025 262
137.0252 168
151.0406 172
161.0617 93
179.0358 109
187.0411 96
203.0718 236
205.0515 194
245.0828 360
289.0712 999

name: 4-Androstene-3,17-dione
synon: Androstenedione
synon: (8R,9S,10R,13S,14S)-10,13-dimethyl-2,6,7,8,9,11,12,14,15,16-decahydro-1H-cyclopenta[a]phenanthrene-3,17-dione
db#: MSBNK-UFZ-WANA050211C9CFPH
inchikey: AEMFNILZOJDQLW-QAGGRKNESA-N
inchi: InChI=1S/C19H26O2/c1-18-9-7-13(20)11-12(18)3-4-14-15-5-6-17(21)19(15,2)10-8-16(14)18/h11,14-16H,3-10H2,1-2H3/t14-,15-,16-,18-,19-/m0/s1
smiles: C[C@]12CC[C@H]3[C@@H](CCC4=CC(=O)CC[C@]34C)[C@@H]1CCC2=O
precursor_type: [M+H]+
spectrum_type: MS2
precursormz: 287.2006
instrument_type: LC-ESI-ITFT
instrument: LTQ Orbitrap XL Thermo Scientific
ion_mode: POSITIVE
collision_energy: 40 % (nominal)
formula: C19H26O2
mw: 286
exactmass: 286.193280072
comments: Parent=287.2006
splash: splash10-052k-9760000000-c44864ee92e97541e3d9
notes: MSBNK-UFZ-WANA050211C9CFPH
num peaks: 50
79.054 5
81.0696 6
83.049 34
93.0698 4
95.0851 5
97.0646 999
105.0696 4
107.0854 7
109.0645 593
119.0852 10
121.0644 3
121.1008 7
123.0802 54
131.0851 7
133.1011 14
135.1165 3
143.0852 5
145.1009 22
147.0801 2
147.1166 15
149.0955 3
149.1318 2
159.1165 22
161.0957 3
161.1324 9
163.1114 4
169.1011 4
171.1165 5
173.1322 41
175.1122 3
177.1273 3
185.1322 19
187.1477 17
189.1276 3
191.1426 5
195.1167 7
199.1476 6
203.1429 3
205.1584 4
209.132 9
211.1478 36
213.1266 3
217.1579 9
225.1636 4
227.1789 9
229.1582 20
241.195 5
251.179 31
269.1895 75
287.2 521

name: Myclobutanil
synon: 2-(4-chlorophenyl)-2-(1,2,4-triazol-1-ylmethyl)hexanenitrile
db#: MSBNK-UFZ-WANA004311C9CFPH
inchikey: HZJKXKUJVSEEFU-UHFFFAOYSA-N
inchi: InChI=1S/C15H17ClN4/c1-2-3-8-15(9-17,10-20-12-18-11-19-20)13-4-6-14(16)7-5-13/h4-7,11-12H,2-3,8,10H2,1H3
smiles: CCCCC(CN1C=NC=N1)(C#N)C1=CC=C(Cl)C=C1
precursor_type: [M+H]+
spectrum_type: MS2
precursormz: 289.1215
instrument_type: LC-ESI-ITFT
instrument: LTQ Orbitrap XL Thermo Scientific
ion_mode: POSITIVE
collision_energy: 40 % (nominal)
formula: C15H17ClN4
mw: 288
exactmass: 288.114174224
comments: Parent=289.1215
splash: splash10-00di-9310000000-c6d853b6d2698537acf7
notes: MSBNK-UFZ-WANA004311C9CFPH
num peaks: 22
57.0697 2
70.0398 999
81.0698 3
82.0651 2
83.0477 5
95.073 3
125.0152 260
139.0309 2
150.0105 3
151.0308 77
164.026 22
165.0339 6
166.0418 11
167.0858 1
168.0934 4
178.0419 16
185.1201 4
192.0573 4
193.0778 28
203.062 17
220.0887 62
289.1214 76

