Name: Undecane
Formula: C11H24
MW: 156
ExactMass: 156.1878
CAS#: 1120-21-4
InChI: InChI=1S/C11H24/c1-3-5-7-9-11-10-8-6-4-2/h3-11H2,1-2H3
InChIKey: RSJKGSCJYJTIGS-UHFFFAOYSA-N
SMILES: CCCCCCCCCCC
Instrument_type: GC-EI-TOF
Instrument: LECO Pegasus HT
Num Peaks: 42
50 8
51 14
52 6
53 57
54 37
55 295
56 248
57 999
58 36
63 1
65 9
66 3
67 35
68 15
69 103
70 140
71 429
72 17
77 6
78 1
79 7
81 7
82 10
83 27
84 65
85 202
86 9
91 1
95 1
96 2
97 9
98 41
99 31
100 1
111 2
112 15
113 19
114 1
126 4
127 9
154 2
156 11

Name: Dodecane
Formula: C12H26
MW: 170
ExactMass: 170.203451
CAS#: 112-40-3
InChI: InChI=1S/C12H26/c1-3-5-7-9-11-12-10-8-6-4-2/h3-12H2,1-2H3
InChIKey: SNRUBQQJIBEYMU-UHFFFAOYSA-N
SMILES: CCCCCCCCCCCC
Instrument_type: GC-EI-TOF
Instrument: LECO Pegasus HT
Num Peaks: 44
50 6
51 12
52 5
53 54
54 37
55 303
56 235
57 999
58 35
63 2
65 9
66 4
67 38
68 18
69 108
70 134
71 491
72 20
77 6
78 1
79 7
81 7
82 14
83 38
84 59
85 235
86 11
91 1
95 2
96 4
97 15
98 36
99 32
100 2
111 3
112 19
113 17
114 1
126 7
127 10
140 2
141 4
168 1
170 8

Name: Tridecane
Formula: C13H28
MW: 184
ExactMass: 184.219101
CAS#: 629-50-5
InChI: InChI=1S/C13H28/c1-3-5-7-9-11-13-12-10-8-6-4-2/h3-13H2,1-2H3
InChIKey: IIYFAKIEWZDVMP-UHFFFAOYSA-N
SMILES: CCCCCCCCCCCCC
Instrument_type: GC-EI-TOF
Instrument: LECO Pegasus HT
Num Peaks: 49
50 6
51 11
52 5
53 51
54 37
55 314
56 220
57 999
58 34
63 1
65 9
66 3
67 39
68 17
69 110
70 126
71 526
72 22
77 5
79 7
80 1
81 9
82 17
83 45
84 54
85 274
86 12
91 2
95 2
96 5
97 22
98 32
99 42
100 3
110 1
111 5
112 20
113 18
114 1
125 1
126 10
127 12
128 1
140 3
141 6
154 1
155 2
182 1
184 6

Name: Tetradecane
Formula: C14H30
MW: 198
ExactMass: 198.234751
CAS#: 629-59-4
InChI: InChI=1S/C14H30/c1-3-5-7-9-11-13-14-12-10-8-6-4-2/h3-14H2,1-2H3
InChIKey: BGHCVCJVXZWKCC-UHFFFAOYSA-N
SMILES: CCCCCCCCCCCCCC
Instrument_type: GC-EI-TOF
Instrument: LECO Pegasus HT
Num Peaks: 47
50 5
51 9
52 4
53 46
54 37
55 326
56 208
57 999
58 36
63 1
65 8
66 3
67 39
68 18
69 117
70 119
71 553
72 23
77 4
79 7
81 8
82 17
83 50
84 51
85 306
86 14
91 1
95 2
96 5
97 28
98 30
99 55
100 2
110 1
111 9
112 19
113 21
114 1
125 2
126 11
127 13
140 5
141 8
154 2
155 3
169 1
198 4

Name: Pentadecane
Formula: C15H32
MW: 212
ExactMass: 212.2504015
CAS#: 629-62-9
InChI: InChI=1S/C15H32/c1-3-5-7-9-11-13-15-14-12-10-8-6-4-2/h3-15H2,1-2H3
InChIKey: YCOZIPAWZNQLMR-UHFFFAOYSA-N
SMILES: CCCCCCCCCCCCCCC
Instrument_type: GC-EI-TOF
Instrument: LECO Pegasus HT
Num Peaks: 48
50 5
51 7
52 3
53 42
54 34
55 329
56 197
57 999
58 35
65 7
66 3
67 38
68 20
69 117
70 113
71 569
72 23
77 4
79 6
80 1
81 8
82 19
83 55
84 48
85 322
86 16
91 1
95 3
96 7
97 32
98 28
99 68
100 3
110 1
111 11
112 17
113 27
114 2
125 3
126 12
127 14
128 1
140 6
141 8
154 3
155 5
169 2
212 3

