Name: Hexachlorocyclopentadiene
Formula: C5Cl6
MW: 270
ExactMass: 269.813116
CAS#: 77-47-4
InChI: InChI=1S/C5Cl6/c6-1-2(7)4(9)5(10,11)3(1)8
InChIKey: VUNCWTMEJYMOOR-UHFFFAOYSA-N
SMILES: C1(=C(C(C(=C1Cl)Cl)(Cl)Cl)Cl)Cl
Instrument_type: GC-EI-TOF
Instrument: LECO Pegasus GC-HRT
Spectrum_type: accurate m/z
Num Peaks: 121
23.9994 26.0
34.9683 105.0
35.9995 160.0
37.0073 15.0
46.9683 336.0
47.4837 21.0
47.9881 48.0
47.9994 94.0
48.9653 117.0
49.0073 23.0
52.9683 41.0
53.9669 37.0
58.9682 84.0
59.4511 16.0
59.9761 28.0
59.9994 700.0
60.9652 24.0
61.0028 29.0
61.0073 202.0
61.9731 15.0
62.0105 17.0
64.9684 193.0
65.4709 21.0
65.9668 149.0
66.4693 12.0
66.9653 25.0
70.9684 352.0
71.9761 54.0
72.9653 117.0
72.9839 14.0
73.9722 23.0
81.9370 89.0
82.4529 22.0
82.9449 59.0
82.9563 35.0
82.9681 145.0
83.4512 24.0
83.9342 64.0
83.9707 11.0
83.9759 44.0
84.4585 12.0
84.9417 40.0
84.9653 43.0
85.9722 14.0
86.9391 11.0
93.9370 238.0
94.9683 863.0
95.9342 124.0
95.9720 38.0
95.9760 179.0
96.9651 283.0
96.9839 35.0
97.9310 11.0
97.9687 13.0
97.9729 52.0
98.9790 11.0
99.9373 95.0
100.4413 25.0
100.9357 90.0
101.4403 30.0
101.9340 48.0
102.4380 15.0
105.9373 220.0
106.9448 126.0
107.9340 147.0
108.9416 69.0
109.9310 27.0
116.9060 229.0
117.4219 102.0
117.9372 155.0
118.4198 146.0
118.9029 213.0
118.9424 15.0
119.4187 71.0
119.9340 111.0
120.4170 27.0
120.9001 75.0
121.9310 12.0
129.9372 505.0
130.9408 43.0
130.9452 86.0
131.9343 304.0
131.9494 12.0
132.9411 84.0
133.9320 53.0
134.9388 12.0
140.9060 385.0
142.9030 358.0
144.8999 114.0
145.0647 65.0
152.9059 13.0
159.0805 16.0
160.0880 24.0
164.9061 204.0
166.9031 187.0
166.9217 129.0
167.9052 13.0
168.9000 61.0
168.9187 135.0
169.9236 20.0
170.9164 32.0
200.8826 249.0
201.8908 30.0
202.8795 330.0
203.8861 54.0
204.8768 169.0
205.8843 23.0
206.8737 43.0
234.8436 625.0
235.8491 68.0
236.8407 1000.0
237.8470 119.0
238.8377 654.0
239.8446 65.0
240.8348 206.0
241.8384 23.0
242.8318 33.0
269.8124 63.0
271.8094 120.0
273.8062 105.0
275.8037 48.0

Name: 2,4,6-Trichlorophenol
Formula: C6H3Cl3O
MW: 196
ExactMass: 195.924948
CAS#: 88-06-2
InChI: InChI=1S/C6H3Cl3O/c7-3-1-4(8)6(10)5(9)2-3/h1-2,10H
InChIKey: LINPIYWFGCPVIE-UHFFFAOYSA-N
SMILES: C1=C(C=C(C(=C1Cl)O)Cl)Cl
Instrument_type: GC-EI-TOF
Instrument: LECO Pegasus GC-HRT
Spectrum_type: accurate m/z
Num Peaks: 80
29.0023 19.0
34.9683 23.0
35.9995 24.0
37.0073 89.0
38.0151 29.0
46.9683 38.0
47.9878 120.0
48.4917 15.0
48.9653 12.0
48.9863 37.0
49.0073 29.0
50.0151 36.0
53.0022 101.0
59.9762 31.0
59.9994 56.0
61.0073 233.0
61.9732 11.0
62.0106 12.0
62.0151 265.0
63.0185 16.0
63.0229 84.0
65.9761 65.0
66.0101 11.0
66.9747 42.0
70.9683 37.0
71.9762 98.0
72.9654 11.0
72.9840 85.0
73.0073 29.0
73.9732 32.0
74.0151 32.0
74.9811 29.0
79.9736 26.0
80.9722 16.0
82.9450 37.0
83.9761 27.0
84.9420 22.0
86.9632 24.0
90.0100 21.0
94.9682 21.0
95.9761 78.0
96.9839 665.0
97.9619 33.0
97.9731 25.0
97.9873 38.0
97.9917 13.0
98.9604 34.0
98.9809 225.0
99.9843 12.0
105.9372 15.0
106.9450 95.0
107.9762 16.0
108.9420 62.0
110.9391 11.0
124.9789 27.0
130.9449 30.0
131.9527 577.0
132.9420 19.0
132.9562 34.0
132.9606 105.0
133.9498 365.0
134.9532 22.0
134.9577 69.0
135.9469 59.0
136.9547 11.0
159.9477 188.0
160.9512 15.0
161.9448 124.0
161.9634 12.0
163.9419 20.0
166.9217 49.0
168.9187 45.0
170.9159 14.0
195.9243 1000.0
196.9278 69.0
197.9214 920.0
198.9249 65.0
199.9185 303.0
200.9219 22.0
201.9156 34.0

Name: 2,3,4,6-Tetrachlorophenol
Formula: C6H2Cl4O
MW: 230
ExactMass: 229.885976
CAS#: 58-90-2
InChI: InChI=1S/C6H2Cl4O/c7-2-1-3(8)6(11)5(10)4(2)9/h1,11H
InChIKey: VGVRPFIJEJYOFN-UHFFFAOYSA-N
SMILES: C1=C(C(=C(C(=C1Cl)Cl)Cl)O)Cl
Instrument_type: GC-EI-TOF
Instrument: LECO Pegasus GC-HRT
Spectrum_type: accurate m/z
Num Peaks: 102
29.0022 15.0
34.9683 22.0
35.9995 26.0
37.0073 60.0
46.9683 45.0
47.9878 32.0
48.9654 14.0
48.9863 11.0
49.0073 21.0
53.0022 14.0
58.9683 12.0
59.9761 23.0
59.9994 96.0
61.0072 261.0
61.9853 16.0
62.0106 15.0
62.0151 60.0
64.9683 113.0
65.4722 18.0
65.9668 72.0
66.4706 13.0
66.9655 11.0
70.9683 44.0
71.9762 77.0
72.9654 14.0
72.9840 22.0
73.0073 27.0
73.9732 26.0
77.0023 17.0
81.9371 14.0
82.9450 28.0
82.9566 62.0
82.9684 13.0
83.9551 56.0
83.9761 38.0
84.9419 18.0
84.9537 19.0
85.9731 13.0
86.9632 104.0
88.9603 34.0
90.0101 15.0
93.9372 22.0
94.9682 95.0
95.9342 15.0
95.9761 271.0
96.9541 24.0
96.9653 30.0
96.9795 13.0
96.9839 106.0
97.9526 23.0
97.9731 91.0
98.9810 35.0
105.9372 36.0
106.9449 134.0
107.9341 24.0
107.9761 36.0
108.9420 87.0
109.9731 12.0
110.9390 14.0
114.9425 31.0
115.9411 40.0
116.9395 18.0
117.9373 23.0
119.9344 12.0
123.9710 39.0
125.9680 13.0
129.9372 38.0
130.9449 584.0
131.9342 24.0
131.9484 35.0
131.9525 11.0
132.9420 375.0
133.9453 22.0
134.9391 63.0
140.9061 23.0
142.9032 23.0
158.9399 14.0
159.9477 15.0
165.9138 304.0
166.9217 97.0
167.9109 295.0
168.9187 90.0
169.9079 95.0
170.9158 30.0
171.9048 11.0
193.9088 208.0
194.9122 14.0
195.9058 203.0
195.9244 15.0
196.9092 15.0
197.9028 64.0
197.9214 14.0
200.8826 31.0
202.8797 40.0
204.8768 21.0
229.8854 798.0
230.8889 60.0
231.8824 1000.0
232.8860 73.0
233.8796 479.0
234.8831 35.0
235.8765 108.0

Name: Hexachlorobenzene
Formula: C6Cl6
MW: 282
ExactMass: 281.813116
CAS#: 118-74-1
InChI: InChI=1S/C6Cl6/c7-1-2(8)4(10)6(12)5(11)3(1)9
InChIKey: CKAPSXZOOQJIBF-UHFFFAOYSA-N
SMILES: C1(=C(C(=C(C(=C1Cl)Cl)Cl)Cl)Cl)Cl
Instrument_type: GC-EI-TOF
Instrument: LECO Pegasus GC-HRT
Spectrum_type: accurate m/z
Num Peaks: 70
34.9683 21.0
35.9995 40.0
46.9683 62.0
48.9654 21.0
59.9994 42.0
70.9683 131.0
71.9669 20.0
71.9995 50.0
72.9653 36.0
81.9372 11.0
82.9682 31.0
84.9653 11.0
88.4527 23.0
89.4512 22.0
93.9372 27.0
94.9682 75.0
95.9342 18.0
96.9653 26.0
105.9372 92.0
106.9356 61.0
106.9681 191.0
107.9341 61.0
107.9716 13.0
108.9652 65.0
117.9370 102.0
119.9341 66.0
121.9312 12.0
124.4201 15.0
129.9371 37.0
131.9341 25.0
140.9059 58.0
141.9045 64.0
141.9369 321.0
142.9030 73.0
142.9403 21.0
143.9015 22.0
143.9340 201.0
144.9001 13.0
144.9374 14.0
145.9311 34.0
164.9058 21.0
166.9029 20.0
176.9058 122.0
178.9028 118.0
180.8999 39.0
187.8748 12.0
189.8718 16.0
211.8745 149.0
212.8781 11.0
213.8715 192.0
214.8751 14.0
215.8687 97.0
217.8657 22.0
246.8433 179.0
247.8470 17.0
248.8403 286.0
249.8442 26.0
250.8374 185.0
251.8412 17.0
252.8346 61.0
254.8315 11.0
281.8121 543.0
282.8156 36.0
283.8091 1000.0
284.8126 66.0
285.8062 767.0
286.8097 48.0
287.8033 323.0
288.8067 21.0
289.8004 80.0

Name: Pentachlorophenol
Formula: C6HCl5O
MW: 264
ExactMass: 263.847004
CAS#: 87-86-5
InChI: InChI=1S/C6HCl5O/c7-1-2(8)4(10)6(12)5(11)3(1)9/h12H
InChIKey: IZUPBVBPLAPZRR-UHFFFAOYSA-N
SMILES: C1(=C(C(=C(C(=C1Cl)Cl)Cl)Cl)Cl)O
Instrument_type: GC-EI-TOF
Instrument: LECO Pegasus GC-HRT
Spectrum_type: accurate m/z
Num Peaks: 117
29.0023 18.0
34.9683 52.0
35.9994 48.0
36.9654 14.0
46.9683 76.0
47.9995 21.0
48.9654 28.0
58.9683 26.0
59.9761 12.0
59.9994 222.0
61.0028 12.0
61.0072 93.0
61.4813 14.0
62.9633 11.0
64.9683 102.0
65.9669 66.0
66.9654 11.0
70.9683 99.0
71.9762 26.0
72.9653 35.0
78.9659 15.0
81.9372 31.0
82.4527 37.0
82.9449 24.0
82.9683 54.0
83.4512 33.0
83.9343 20.0
83.9550 13.0
83.9760 12.0
84.4498 11.0
84.9419 14.0
84.9653 19.0
86.9632 128.0
88.9602 43.0
93.9372 40.0
94.9682 417.0
95.9342 28.0
95.9716 27.0
95.9760 113.0
96.9653 144.0
97.9732 39.0
99.9371 100.0
100.9356 130.0
101.4374 13.0
101.9341 65.0
102.9327 13.0
105.9372 96.0
106.9449 55.0
106.9683 31.0
107.9342 66.0
108.9419 38.0
109.9314 12.0
110.9632 28.0
113.9346 33.0
114.9331 48.0
115.9317 22.0
116.9060 33.0
117.9372 92.0
118.9031 34.0
119.9342 58.0
122.9633 22.0
123.9711 38.0
125.9680 13.0
129.9371 345.0
130.9450 131.0
131.9229 32.0
131.9342 224.0
132.9215 49.0
132.9420 84.0
133.9201 30.0
133.9313 41.0
134.9392 14.0
140.9060 97.0
141.9372 28.0
142.9031 96.0
143.9342 18.0
144.9001 30.0
157.9321 19.0
159.9290 12.0
164.9059 554.0
165.9094 44.0
166.9030 524.0
167.9065 43.0
168.9001 171.0
169.9042 16.0
170.8971 20.0
193.9089 15.0
195.9059 14.0
199.8749 215.0
200.8826 93.0
201.8719 277.0
202.8797 121.0
203.8691 137.0
204.8767 57.0
205.8661 29.0
206.8737 14.0
227.8698 168.0
228.8735 13.0
229.8669 214.0
229.8853 20.0
230.8706 17.0
231.8637 105.0
231.8826 25.0
233.8610 22.0
233.8797 13.0
234.8439 28.0
236.8407 41.0
238.8379 28.0
263.8464 645.0
264.8501 46.0
265.8435 1000.0
266.8471 67.0
267.8405 637.0
268.8440 48.0
269.8376 206.0
270.8410 14.0
271.8348 35.0

