name: Hexachlorocyclopentadiene
cas#: 77-47-4
formula: C5Cl6
mw: 270
exactmass: 269.813116
inchi: InChI=1S/C5Cl6/c6-1-2(7)4(9)5(10,11)3(1)8
inchikey: VUNCWTMEJYMOOR-UHFFFAOYSA-N
smiles: C1(=C(C(C(=C1Cl)Cl)(Cl)Cl)Cl)Cl
instrument_type: GC-EI-TOF
instrument: LECO Pegasus HT
num peaks: 77
52 24
54 39
57 44
59 147
60 999
61 278
62 48
65 243
66 152
67 55
70 23
71 391
72 68
73 142
74 33
82 173
83 324
84 126
85 143
86 37
92 25
94 274
95 945
96 292
97 308
98 70
100 99
101 143
102 61
103 24
106 246
107 62
108 149
109 54
110 36
111 27
117 215
118 207
119 207
120 98
121 76
130 503
131 78
132 324
133 58
134 51
141 293
143 302
145 101
165 222
167 216
169 101
170 21
188 21
201 126
203 150
204 30
205 76
207 26
208 22
222 24
234 28
235 599
236 98
237 927
238 108
239 589
240 51
241 186
242 32
243 41
269 21
270 46
271 32
272 100
274 91
276 38

name: 2,4,6-Trichlorophenol
cas#: 88-06-2
formula: C6H3Cl3O
mw: 196
exactmass: 195.924948
inchi: InChI=1S/C6H3Cl3O/c7-3-1-4(8)6(10)5(9)2-3/h1-2,10H
inchikey: LINPIYWFGCPVIE-UHFFFAOYSA-N
smiles: C1=C(C=C(C(=C1Cl)O)Cl)Cl
instrument_type: GC-EI-TOF
instrument: LECO Pegasus HT
num peaks: 46
50 151
53 311
60 298
61 620
62 598
63 256
64 34
65 25
66 149
67 109
71 108
72 198
73 242
74 145
75 49
77 22
80 61
81 38
82 21
83 65
84 73
85 54
87 48
90 40
95 32
96 116
97 999
98 151
99 376
100 22
107 127
108 51
109 95
132 516
133 128
134 363
135 69
136 44
160 195
162 125
167 22
196 618
197 42
198 578
199 42
200 182

name: Hexachlorobenzene
cas#: 118-74-1
formula: C6Cl6
mw: 282
exactmass: 281.813116
inchi: InChI=1S/C6Cl6/c7-1-2(8)4(10)6(12)5(11)3(1)9
inchikey: CKAPSXZOOQJIBF-UHFFFAOYSA-N
smiles: C1(=C(C(=C(C(=C1Cl)Cl)Cl)Cl)Cl)Cl
instrument_type: GC-EI-TOF
instrument: LECO Pegasus HT
num peaks: 69
59 121
60 515
61 75
70 32
71 996
72 472
73 316
74 24
82 133
83 195
84 103
85 55
94 238
95 517
96 178
97 158
98 39
106 506
107 999
108 376
109 284
110 59
117 20
118 326
119 37
120 208
122 28
130 151
132 94
141 171
142 941
143 274
144 579
145 82
146 78
153 24
155 20
165 67
167 50
177 210
179 195
180 20
181 64
188 36
190 39
192 21
212 210
213 25
214 255
215 28
216 130
218 26
247 220
248 49
249 348
250 77
251 232
252 40
253 65
281 65
282 477
283 150
284 922
285 159
286 723
287 104
288 293
289 30
290 72

