name: Trimethoprim
synon: 5-[(3,4,5-trimethoxyphenyl)methyl]pyrimidine-2,4-diamine
db#: MSBNK-ACES_SU-AS000271
inchi: InChI=1S/C14H18N4O3/c1-19-10-5-8(6-11(20-2)12(10)21-3)4-9-7-17-14(16)18-13(9)15/h5-7H,4H2,1-3H3,(H4,15,16,17,18)
smiles: N=1C=C(C(=NC1N)N)CC2=CC(OC)=C(OC)C(OC)=C2
spectrum_type: MS2
precursormz: 289.1310
instrument_type: LC-ESI-QFT
instrument: QExactive Orbitrap HF-X (Thermo Scientific)
ion_mode: NEGATIVE
collision_energy: Ramp 20%-70% (nominal)
formula: C14H18N4O3
mw: 290
exactmass: 290.1379
comments: Parent=289.1310
splash: splash10-000i-0090000000-1d6ba730acab26a48492
notes: MSBNK-ACES_SU-AS000271
num peaks: 15
198.0545 62
199.06291 10
201.03027 53
202.03915 26
212.93541 10
215.0558 11
217.06119 34
226.04926 52
227.05772 442
243.05194 136
244.06027 28
247.1091 14
259.08362 50
274.10693 252
289.13138 999

name: Testosterone
synon: (8R,9S,10R,13S,14S,17S)-17-hydroxy-10,13-dimethyl-1,2,6,7,8,9,11,12,14,15,16,17-dodecahydrocyclopenta[a]phenanthren-3-one
db#: MSBNK-Antwerp_Univ-METOX_N109506_F638
inchikey: MUMGGOZAMZWBJJ-DYKIIFRCSA-N
inchi: InChI=1S/C19H28O2/c1-18-9-7-13(20)11-12(18)3-4-14-15-5-6-17(21)19(15,2)10-8-16(14)18/h11,14-17,21H,3-10H2,1-2H3/t14-,15-,16-,17-,18-,19-/m0/s1
smiles: C[C@]12CC[C@H]3[C@H]([C@@H]1CC[C@@H]2O)CCC4=CC(=O)CC[C@]34C
precursor_type: [M+H]+
spectrum_type: MS2
precursormz: 289.2162
instrument_type: LC-ESI-QTOF
instrument: Agilent 6560 QTOF
ion_mode: POSITIVE
collision_energy: 10 eV
formula: C19H28O2
mw: 288
exactmass: 288.2089
comments: Parent=289.2162
splash: splash10-052s-7790000000-722fb2fda91d7af31a00
notes: MSBNK-Antwerp_Univ-METOX_N109506_F638
num peaks: 62
77.0375 6
79.0527 31
81.0703 30
83.0485 58
91.0544 15
93.0693 22
95.0848 39
97.0646 916
105.0694 19
107.085 5
109.0643 680
119.0874 1
121.0652 10
121.1006 28
123.0793 41
129.067 5
131.0868 5
133.1007 17
135.1174 28
143.0853 14
145.101 29
147.0803 2
147.1161 12
149.1306 11
153.1269 6
157.0979 4
159.1165 23
161.0952 3
161.1328 18
163.1135 2
163.1483 2
167.1043 6
171.1174 16
175.1467 18
177.1245 1
181.0989 4
183.1142 5
186.1434 10
187.1128 5
187.1483 24
189.1265 1
189.1642 10
191.1439 3
192.1461 3
197.1329 36
199.1494 10
201.1628 17
203.1407 3
211.1486 29
213.1622 44
215.1444 11
219.1761 12
223.1486 1
225.1624 14
227.1814 2
243.1718 5
243.2112 1
253.1943 85
254.2013 12
271.2063 128
272.2103 15
289.2162 999

name: Tetrazepam
synon: 7-chloro-5-(cyclohexen-1-yl)-1-methyl-3H-1,4-benzodiazepin-2-one
db#: MSBNK-Eawag-EQ333004
inchikey: IQWYAQCHYZHJOS-UHFFFAOYSA-N
inchi: InChI=1S/C16H17ClN2O/c1-19-14-8-7-12(17)9-13(14)16(18-10-15(19)20)11-5-3-2-4-6-11/h5,7-9H,2-4,6,10H2,1H3
smiles: CN1C(=O)CN=C(C2=C1C=CC(=C2)Cl)C3=CCCCC3
precursor_type: [M+H]+
spectrum_type: MS2
precursormz: 289.1102
instrument_type: LC-ESI-QFT
instrument: Q Exactive Orbitrap Thermo Scientific
ion_mode: POSITIVE
collision_energy: 60 (nominal)
formula: C16H17ClN2O
mw: 288
exactmass: 288.10294
comments: Parent=289.1102
splash: splash10-0fc0-1690000000-9b2cabcfe30f022505fa
notes: MSBNK-Eawag-EQ333004
num peaks: 209
56.0496 3
58.0288 19
65.0385 21
66.0465 2
67.0541 191
68.0494 8
69.0698 14
70.065 4
77.0384 9
79.0541 183
80.0494 11
81.0698 672
82.065 37
83.0854 9
91.0541 28
93.0698 40
94.065 3
95.049 13
95.073 8
95.0854 124
96.0807 71
103.0541 3
105.0448 3
105.0698 3
106.0651 3
108.0807 4
109.0648 16
110.0964 74
116.0492 2
117.0571 49
118.0648 13
119.0602 2
119.0728 8
120.0806 16
125.0152 10
126.0227 2
127.0307 2
128.0617 2
130.065 17
131.0728 31
132.068 11
139.0181 3
140.0259 36
142.065 2
143.0602 16
143.0729 17
144.0682 11
144.0807 20
145.076 2
145.0889 2
146.0836 9
147.0679 29
148.0756 4
150.0103 13
151.0182 10
152.026 95
154.0417 345
155.0727 14
155.0856 3
156.0675 2
156.0805 12
157.0759 9
157.0884 10
158.0837 2
158.0968 2
159.0915 4
160.0993 8
162.0105 2
164.0259 156
165.0216 14
165.0337 13
165.0697 11
166.0416 50
166.0773 3
167.0131 98
167.0368 14
167.073 27
167.0854 8
168.0212 3
168.0808 58
168.0925 2
169.0769 16
169.0884 115
170.0839 9
170.096 18
171.0915 54
171.104 8
172.0629 85
172.0993 86
175.0305 3
176.0258 2
177.0337 13
178.0416 164
179.0369 113
179.0497 9
179.0852 9
180.0209 58
180.0449 25
180.0573 3
180.0805 33
180.0934 8
181.0527 13
181.0757 10
181.0885 76
182.0365 124
182.0841 35
182.0963 98
183.0917 96
183.1039 75
184.0994 46
184.1116 18
185.1072 59
185.1197 8
189.0341 2
190.0417 45
191.0495 39
192.0447 7
192.0571 25
193.0526 41
193.0882 5
194.0367 10
194.0963 65
195.0683 20
195.0914 9
195.1041 55
196.0994 12
196.1119 172
197.1072 396
197.1197 615
198.115 149
198.1275 280
199.0863 87
199.1354 10
200.0942 100
201.0337 10
202.0415 60
203.0368 25
203.0492 43
204.045 10
204.0573 134
205.0529 16
206.0367 3
206.0601 8
207.0683 85
207.1041 8
208.112 76
209.0471 35
209.1073 17
209.1198 53
210.079 2
210.1151 31
210.127 9
211.0862 27
211.1228 63
212.0942 48
213.102 210
214.0415 11
215.0499 18
216.0574 56
217.0527 58
217.0653 84
218.0605 114
218.0729 45
219.0683 31
220.0887 12
221.0471 8
222.0907 2
223.0634 2
223.1225 23
224.0941 2
224.1054 2
224.1308 3
225.1021 999
225.1384 609
226.1098 463
226.1462 224
228.0568 21
229.0648 10
230.0729 80
231.0684 28
231.0806 23
232.0885 443
233.0473 7
233.084 137
233.0962 46
234.1043 8
235.063 227
236.1065 11
237.1141 14
239.1174 66
242.073 8
243.0691 2
244.0528 3
244.0886 52
245.0603 4
245.0837 75
246.0919 72
247.0628 22
253.1333 741
254.1411 216
259.063 9
259.0992 27
260.0831 3
261.0787 185
261.115 190
272.0841 2
273.0782 4
274.0868 3
289.1099 593

name: Indole-3-acetyl-L-isoleucine
db#: MSBNK-RIKEN-PR304095
inchikey: WPTUQMUCTTVOFW-BONVTDFDSA-N
inchi: InChI=1S/C16H20N2O3/c1-3-10(2)15(16(20)21)18-14(19)8-11-9-17-13-7-5-4-6-12(11)13/h4-7,9-10,15,17H,3,8H2,1-2H3,(H,18,19)(H,20,21)/t10-,15-/m0/s1
smiles: CC[C@H](C)[C@H](N=C(O)CC1=CNC2=CC=CC=C12)C(O)=O
precursor_type: [M+H]+
spectrum_type: MS2
precursormz: 289.154669
instrument_type: LC-ESI-QTOF
instrument: LC, Waters Acquity UPLC System; MS, Waters Xevo G2 Q-Tof
ion_mode: POSITIVE
collision_energy: 6V
formula: C16H20N2O3
mw: 288
exactmass: 288.347
comments: Parent=289.154669
splash: splash10-000l-0190000000-b81c4ffde42ea0288af2
notes: MSBNK-RIKEN-PR304095
num peaks: 13
86.09613 29
130.06502 112
131.07132 5
132.10155 155
133.10475 14
243.14928 771
244.15172 152
245.15779 17
271.14508 153
272.14355 20
272.15585 15
289.15411 999
289.20007 10

name: Indole-3-acetyl-L-isoleucine
db#: MSBNK-RIKEN-PR304101
inchikey: WPTUQMUCTTVOFW-BONVTDFDSA-N
inchi: InChI=1S/C16H20N2O3/c1-3-10(2)15(16(20)21)18-14(19)8-11-9-17-13-7-5-4-6-12(11)13/h4-7,9-10,15,17H,3,8H2,1-2H3,(H,18,19)(H,20,21)/t10-,15-/m0/s1
smiles: CC[C@H](C)[C@H](N=C(O)CC1=CNC2=CC=CC=C12)C(O)=O
precursor_type: [M+H]+
spectrum_type: MS2
precursormz: 289.154669
instrument_type: LC-ESI-QTOF
instrument: LC, Waters Acquity UPLC System; MS, Waters Xevo G2 Q-Tof
ion_mode: POSITIVE
collision_energy: 6V
formula: C16H20N2O3
mw: 288
exactmass: 288.347
comments: Parent=289.154669
splash: splash10-001r-1980000000-7ea201aaacb3b42a9357
notes: MSBNK-RIKEN-PR304101
num peaks: 20
86.09612 189
87.0999 18
130.03389 6
130.04808 5
130.06496 999
131.05934 8
131.06914 90
132.07291 8
132.10168 193
133.10512 19
158.06213 7
243.14961 588
244.15186 94
245.15077 10
271.14328 70
272.15405 8
288.13818 6
288.1474 7
289.15445 429
289.19952 6

